! THEORETICAL_SURROGATE_ONLY - NOT VNA MEASUREMENT
! Ideal free-space 1.0 m broadside, co-polarized identical 350 MHz-centered dipoles
! S21 magnitude from Friis + dipole directivity + 50-ohm mismatch; phase=-kR only
! 601 points, 200-500 MHz, 50-ohm reference
# Hz S RI R 50
200000000 9.650454408696e-01 -2.266445592678e-01 -1.581323086837e-03 2.757366904203e-03 -1.581323086837e-03 2.757366904203e-03 9.650454408696e-01 -2.266445592678e-01
200500000 9.646823132679e-01 -2.276302310071e-01 -1.571292747652e-03 2.807648693876e-03 -1.571292747652e-03 2.807648693876e-03 9.646823132679e-01 -2.276302310071e-01
201000000 9.643150737904e-01 -2.286205076182e-01 -1.560610708068e-03 2.858441604148e-03 -1.560610708068e-03 2.858441604148e-03 9.643150737904e-01 -2.286205076182e-01
201500000 9.639436670645e-01 -2.296154233753e-01 -1.549263870180e-03 2.909745719232e-03 -1.549263870180e-03 2.909745719232e-03 9.639436670645e-01 -2.296154233753e-01
202000000 9.635680368418e-01 -2.306150127704e-01 -1.537238964438e-03 2.961561018233e-03 -1.537238964438e-03 2.961561018233e-03 9.635680368418e-01 -2.306150127704e-01
202500000 9.631881259824e-01 -2.316193105128e-01 -1.524522547777e-03 3.013887372639e-03 -1.524522547777e-03 3.013887372639e-03 9.631881259824e-01 -2.316193105128e-01
203000000 9.628038764386e-01 -2.326283515276e-01 -1.511101001733e-03 3.066724543764e-03 -1.511101001733e-03 3.066724543764e-03 9.628038764386e-01 -2.326283515276e-01
203500000 9.624152292389e-01 -2.336421709547e-01 -1.496960530528e-03 3.120072180135e-03 -1.496960530528e-03 3.120072180135e-03 9.624152292389e-01 -2.336421709547e-01
204000000 9.620221244712e-01 -2.346608041477e-01 -1.482087159128e-03 3.173929814830e-03 -1.482087159128e-03 3.173929814830e-03 9.620221244712e-01 -2.346608041477e-01
204500000 9.616245012658e-01 -2.356842866721e-01 -1.466466731281e-03 3.228296862759e-03 -1.466466731281e-03 3.228296862759e-03 9.616245012658e-01 -2.356842866721e-01
205000000 9.612222977781e-01 -2.367126543042e-01 -1.450084907527e-03 3.283172617887e-03 -1.450084907527e-03 3.283172617887e-03 9.612222977781e-01 -2.367126543042e-01
205500000 9.608154511713e-01 -2.377459430288e-01 -1.432927163182e-03 3.338556250407e-03 -1.432927163182e-03 3.338556250407e-03 9.608154511713e-01 -2.377459430288e-01
206000000 9.604038975977e-01 -2.387841890379e-01 -1.414978786296e-03 3.394446803843e-03 -1.414978786296e-03 3.394446803843e-03 9.604038975977e-01 -2.387841890379e-01
206500000 9.599875721810e-01 -2.398274287284e-01 -1.396224875586e-03 3.450843192105e-03 -1.396224875586e-03 3.450843192105e-03 9.599875721810e-01 -2.398274287284e-01
207000000 9.595664089972e-01 -2.408756987000e-01 -1.376650338336e-03 3.507744196475e-03 -1.376650338336e-03 3.507744196475e-03 9.595664089972e-01 -2.408756987000e-01
207500000 9.591403410559e-01 -2.419290357526e-01 -1.356239888280e-03 3.565148462528e-03 -1.356239888280e-03 3.565148462528e-03 9.591403410559e-01 -2.419290357526e-01
208000000 9.587093002802e-01 -2.429874768843e-01 -1.334978043446e-03 3.623054496996e-03 -1.334978043446e-03 3.623054496996e-03 9.587093002802e-01 -2.429874768843e-01
208500000 9.582732174876e-01 -2.440510592880e-01 -1.312849123983e-03 3.681460664559e-03 -1.312849123983e-03 3.681460664559e-03 9.582732174876e-01 -2.440510592880e-01
209000000 9.578320223692e-01 -2.451198203491e-01 -1.289837249951e-03 3.740365184571e-03 -1.289837249951e-03 3.740365184571e-03 9.578320223692e-01 -2.451198203491e-01
209500000 9.573856434694e-01 -2.461937976421e-01 -1.265926339085e-03 3.799766127713e-03 -1.265926339085e-03 3.799766127713e-03 9.573856434694e-01 -2.461937976421e-01
210000000 9.569340081645e-01 -2.472730289273e-01 -1.241100104535e-03 3.859661412579e-03 -1.241100104535e-03 3.859661412579e-03 9.569340081645e-01 -2.472730289273e-01
210500000 9.564770426417e-01 -2.483575521472e-01 -1.215342052572e-03 3.920048802187e-03 -1.215342052572e-03 3.920048802187e-03 9.564770426417e-01 -2.483575521472e-01
211000000 9.560146718768e-01 -2.494474054230e-01 -1.188635480261e-03 3.980925900411e-03 -1.188635480261e-03 3.980925900411e-03 9.560146718768e-01 -2.494474054230e-01
211500000 9.555468196120e-01 -2.505426270504e-01 -1.160963473115e-03 4.042290148343e-03 -1.160963473115e-03 4.042290148343e-03 9.555468196120e-01 -2.505426270504e-01
212000000 9.550734083332e-01 -2.516432554952e-01 -1.132308902709e-03 4.104138820570e-03 -1.132308902709e-03 4.104138820570e-03 9.550734083332e-01 -2.516432554952e-01
212500000 9.545943592467e-01 -2.527493293894e-01 -1.102654424269e-03 4.166469021370e-03 -1.102654424269e-03 4.166469021370e-03 9.545943592467e-01 -2.527493293894e-01
213000000 9.541095922554e-01 -2.538608875255e-01 -1.071982474228e-03 4.229277680832e-03 -1.071982474228e-03 4.229277680832e-03 9.541095922554e-01 -2.538608875255e-01
213500000 9.536190259352e-01 -2.549779688526e-01 -1.040275267756e-03 4.292561550881e-03 -1.040275267756e-03 4.292561550881e-03 9.536190259352e-01 -2.549779688526e-01
214000000 9.531225775093e-01 -2.561006124702e-01 -1.007514796250e-03 4.356317201225e-03 -1.007514796250e-03 4.356317201225e-03 9.531225775093e-01 -2.561006124702e-01
214500000 9.526201628242e-01 -2.572288576228e-01 -9.736828248022e-04 4.420541015202e-03 -9.736828248022e-04 4.420541015202e-03 9.526201628242e-01 -2.572288576228e-01
215000000 9.521116963234e-01 -2.583627436943e-01 -9.387608896312e-04 4.485229185545e-03 -9.387608896312e-04 4.485229185545e-03 9.521116963234e-01 -2.583627436943e-01
215500000 9.515970910214e-01 -2.595023102014e-01 -9.027302954847e-04 4.550377710048e-03 -9.027302954847e-04 4.550377710048e-03 9.515970910214e-01 -2.595023102014e-01
216000000 9.510762584771e-01 -2.606475967874e-01 -8.655721130085e-04 4.615982387133e-03 -8.655721130085e-04 4.615982387133e-03 9.510762584771e-01 -2.606475967874e-01
216500000 9.505491087667e-01 -2.617986432146e-01 -8.272671760845e-04 4.682038811324e-03 -8.272671760845e-04 4.682038811324e-03 9.505491087667e-01 -2.617986432146e-01
217000000 9.500155504557e-01 -2.629554893579e-01 -7.877960791370e-04 4.748542368617e-03 -7.877960791370e-04 4.748542368617e-03 9.500155504557e-01 -2.629554893579e-01
217500000 9.494754905708e-01 -2.641181751964e-01 -7.471391744065e-04 4.815488231738e-03 -7.471391744065e-04 4.815488231738e-03 9.494754905708e-01 -2.641181751964e-01
218000000 9.489288345712e-01 -2.652867408059e-01 -7.052765691915e-04 4.882871355309e-03 -7.052765691915e-04 4.882871355309e-03 9.489288345712e-01 -2.652867408059e-01
218500000 9.483754863190e-01 -2.664612263501e-01 -6.621881230588e-04 4.950686470889e-03 -6.621881230588e-04 4.950686470889e-03 9.483754863190e-01 -2.664612263501e-01
219000000 9.478153480490e-01 -2.676416720720e-01 -6.178534450206e-04 5.018928081914e-03 -6.178534450206e-04 5.018928081914e-03 9.478153480490e-01 -2.676416720720e-01
219500000 9.472483203386e-01 -2.688281182842e-01 -5.722518906806e-04 5.087590458516e-03 -5.722518906806e-04 5.087590458516e-03 9.472483203386e-01 -2.688281182842e-01
220000000 9.466743020764e-01 -2.700206053596e-01 -5.253625593469e-04 5.156667632220e-03 -5.253625593469e-04 5.156667632220e-03 9.466743020764e-01 -2.700206053596e-01
220500000 9.460931904301e-01 -2.712191737211e-01 -4.771642911143e-04 5.226153390530e-03 -4.771642911143e-04 5.226153390530e-03 9.460931904301e-01 -2.712191737211e-01
221000000 9.455048808145e-01 -2.724238638306e-01 -4.276356639130e-04 5.296041271382e-03 -4.276356639130e-04 5.296041271382e-03 9.455048808145e-01 -2.724238638306e-01
221500000 9.449092668580e-01 -2.736347161781e-01 -3.767549905275e-04 5.366324557469e-03 -3.767549905275e-04 5.366324557469e-03 9.449092668580e-01 -2.736347161781e-01
222000000 9.443062403694e-01 -2.748517712697e-01 -3.245003155825e-04 5.436996270439e-03 -3.245003155825e-04 5.436996270439e-03 9.443062403694e-01 -2.748517712697e-01
222500000 9.436956913029e-01 -2.760750696157e-01 -2.708494124983e-04 5.508049164957e-03 -2.708494124983e-04 5.508049164957e-03 9.436956913029e-01 -2.760750696157e-01
223000000 9.430775077235e-01 -2.773046517171e-01 -2.157797804152e-04 5.579475722629e-03 -2.157797804152e-04 5.579475722629e-03 9.430775077235e-01 -2.773046517171e-01
223500000 9.424515757708e-01 -2.785405580531e-01 -1.592686410873e-04 5.651268145781e-03 -1.592686410873e-04 5.651268145781e-03 9.424515757708e-01 -2.785405580531e-01
224000000 9.418177796230e-01 -2.797828290660e-01 -1.012929357458e-04 5.723418351099e-03 -1.012929357458e-04 5.723418351099e-03 9.418177796230e-01 -2.797828290660e-01
224500000 9.411760014593e-01 -2.810315051472e-01 -4.182932193304e-05 5.795917963113e-03 -4.182932193304e-05 5.795917963113e-03 9.411760014593e-01 -2.810315051472e-01
225000000 9.405261214223e-01 -2.822866266219e-01 1.914582969311e-05 5.868758307538e-03 1.914582969311e-05 5.868758307538e-03 9.405261214223e-01 -2.822866266219e-01
225500000 9.398680175791e-01 -2.835482337325e-01 8.165643858304e-05 5.941930404444e-03 8.165643858304e-05 5.941930404444e-03 9.398680175791e-01 -2.835482337325e-01
226000000 9.392015658822e-01 -2.848163666223e-01 1.457267175476e-04 6.015424961279e-03 1.457267175476e-04 6.015424961279e-03 9.392015658822e-01 -2.848163666223e-01
226500000 9.385266401288e-01 -2.860910653181e-01 2.113811760371e-04 6.089232365717e-03 2.113811760371e-04 6.089232365717e-03 9.385266401288e-01 -2.860910653181e-01
227000000 9.378431119204e-01 -2.873723697115e-01 2.786446234473e-04 6.163342678347e-03 2.786446234473e-04 6.163342678347e-03 9.378431119204e-01 -2.873723697115e-01
227500000 9.371508506210e-01 -2.886603195404e-01 3.475421724505e-04 6.237745625175e-03 3.475421724505e-04 6.237745625175e-03 9.371508506210e-01 -2.886603195404e-01
228000000 9.364497233140e-01 -2.899549543688e-01 4.180992423515e-04 6.312430589958e-03 4.180992423515e-04 6.312430589958e-03 9.364497233140e-01 -2.899549543688e-01
228500000 9.357395947594e-01 -2.912563135660e-01 4.903415624668e-04 6.387386606356e-03 4.903415624668e-04 6.387386606356e-03 9.357395947594e-01 -2.912563135660e-01
229000000 9.350203273495e-01 -2.925644362853e-01 5.642951755268e-04 6.462602349886e-03 5.642951755268e-04 6.462602349886e-03 9.350203273495e-01 -2.925644362853e-01
229500000 9.342917810636e-01 -2.938793614415e-01 6.399864410986e-04 6.538066129699e-03 6.399864410986e-04 6.538066129699e-03 9.342917810636e-01 -2.938793614415e-01
230000000 9.335538134224e-01 -2.952011276869e-01 7.174420390283e-04 6.613765880146e-03 7.174420390283e-04 6.613765880146e-03 9.335538134224e-01 -2.952011276869e-01
230500000 9.328062794408e-01 -2.965297733876e-01 7.966889729031e-04 6.689689152152e-03 7.966889729031e-04 6.689689152152e-03 9.328062794408e-01 -2.965297733876e-01
231000000 9.320490315808e-01 -2.978653365971e-01 8.777545735279e-04 6.765823104373e-03 8.777545735279e-04 6.765823104373e-03 9.320490315808e-01 -2.978653365971e-01
231500000 9.312819197024e-01 -2.992078550307e-01 9.606665024188e-04 6.842154494155e-03 9.606665024188e-04 6.842154494155e-03 9.312819197024e-01 -2.992078550307e-01
232000000 9.305047910144e-01 -3.005573660369e-01 1.045452755309e-03 6.918669668258e-03 1.045452755309e-03 6.918669668258e-03 9.305047910144e-01 -3.005573660369e-01
232500000 9.297174900240e-01 -3.019139065693e-01 1.132141665666e-03 6.995354553369e-03 1.132141665666e-03 6.995354553369e-03 9.297174900240e-01 -3.019139065693e-01
233000000 9.289198584853e-01 -3.032775131562e-01 1.220761908216e-03 7.072194646381e-03 1.220761908216e-03 7.072194646381e-03 9.289198584853e-01 -3.032775131562e-01
233500000 9.281117353470e-01 -3.046482218694e-01 1.311342502480e-03 7.149175004437e-03 1.311342502480e-03 7.149175004437e-03 9.281117353470e-01 -3.046482218694e-01
234000000 9.272929566994e-01 -3.060260682916e-01 1.403912816309e-03 7.226280234737e-03 1.403912816309e-03 7.226280234737e-03 9.272929566994e-01 -3.060260682916e-01
234500000 9.264633557199e-01 -3.074110874828e-01 1.498502569421e-03 7.303494484090e-03 1.498502569421e-03 7.303494484090e-03 9.264633557199e-01 -3.074110874828e-01
235000000 9.256227626176e-01 -3.088033139447e-01 1.595141836943e-03 7.380801428223e-03 1.595141836943e-03 7.380801428223e-03 9.256227626176e-01 -3.088033139447e-01
235500000 9.247710045776e-01 -3.102027815841e-01 1.693861052939e-03 7.458184260824e-03 1.693861052939e-03 7.458184260824e-03 9.247710045776e-01 -3.102027815841e-01
236000000 9.239079057034e-01 -3.116095236751e-01 1.794691013942e-03 7.535625682322e-03 1.794691013942e-03 7.535625682322e-03 9.239079057034e-01 -3.116095236751e-01
236500000 9.230332869584e-01 -3.130235728186e-01 1.897662882464e-03 7.613107888392e-03 1.897662882464e-03 7.613107888392e-03 9.230332869584e-01 -3.130235728186e-01
237000000 9.221469661071e-01 -3.144449609019e-01 2.002808190498e-03 7.690612558185e-03 2.002808190498e-03 7.690612558185e-03 9.221469661071e-01 -3.144449609019e-01
237500000 9.212487576546e-01 -3.158737190550e-01 2.110158843003e-03 7.768120842268e-03 2.110158843003e-03 7.768120842268e-03 9.212487576546e-01 -3.158737190550e-01
238000000 9.203384727847e-01 -3.173098776063e-01 2.219747121361e-03 7.845613350276e-03 2.219747121361e-03 7.845613350276e-03 9.203384727847e-01 -3.173098776063e-01
238500000 9.194159192983e-01 -3.187534660359e-01 2.331605686811e-03 7.923070138256e-03 2.331605686811e-03 7.923070138256e-03 9.194159192983e-01 -3.187534660359e-01
239000000 9.184809015488e-01 -3.202045129274e-01 2.445767583850e-03 8.000470695712e-03 2.445767583850e-03 8.000470695712e-03 9.184809015488e-01 -3.202045129274e-01
239500000 9.175332203785e-01 -3.216630459178e-01 2.562266243600e-03 8.077793932334e-03 2.562266243600e-03 8.077793932334e-03 9.175332203785e-01 -3.216630459178e-01
240000000 9.165726730521e-01 -3.231290916450e-01 2.681135487126e-03 8.155018164398e-03 2.681135487126e-03 8.155018164398e-03 9.165726730521e-01 -3.231290916450e-01
240500000 9.155990531902e-01 -3.246026756933e-01 2.802409528719e-03 8.232121100841e-03 2.802409528719e-03 8.232121100841e-03 9.155990531902e-01 -3.246026756933e-01
241000000 9.146121507015e-01 -3.260838225378e-01 2.926122979112e-03 8.309079829003e-03 2.926122979112e-03 8.309079829003e-03 9.146121507015e-01 -3.260838225378e-01
241500000 9.136117517134e-01 -3.275725554847e-01 3.052310848648e-03 8.385870800012e-03 3.052310848648e-03 8.385870800012e-03 9.136117517134e-01 -3.275725554847e-01
242000000 9.125976385020e-01 -3.290688966113e-01 3.181008550372e-03 8.462469813828e-03 3.181008550372e-03 8.462469813828e-03 9.125976385020e-01 -3.290688966113e-01
242500000 9.115695894211e-01 -3.305728667019e-01 3.312251903058e-03 8.538852003913e-03 3.312251903058e-03 8.538852003913e-03 9.115695894211e-01 -3.305728667019e-01
243000000 9.105273788295e-01 -3.320844851824e-01 3.446077134150e-03 8.614991821538e-03 3.446077134150e-03 8.614991821538e-03 9.105273788295e-01 -3.320844851824e-01
243500000 9.094707770175e-01 -3.336037700520e-01 3.582520882617e-03 8.690863019711e-03 3.582520882617e-03 8.690863019711e-03 9.094707770175e-01 -3.336037700520e-01
244000000 9.083995501325e-01 -3.351307378119e-01 3.721620201708e-03 8.766438636716e-03 3.721620201708e-03 8.766438636716e-03 9.083995501325e-01 -3.351307378119e-01
244500000 9.073134601031e-01 -3.366654033918e-01 3.863412561605e-03 8.841690979255e-03 3.863412561605e-03 8.841690979255e-03 9.073134601031e-01 -3.366654033918e-01
245000000 9.062122645624e-01 -3.382077800731e-01 4.007935851961e-03 8.916591605188e-03 4.007935851961e-03 8.916591605188e-03 9.062122645624e-01 -3.382077800731e-01
245500000 9.050957167700e-01 -3.397578794094e-01 4.155228384307e-03 8.991111305856e-03 4.155228384307e-03 8.991111305856e-03 9.050957167700e-01 -3.397578794094e-01
246000000 9.039635655328e-01 -3.413157111438e-01 4.305328894331e-03 9.065220087986e-03 4.305328894331e-03 9.065220087986e-03 9.039635655328e-01 -3.413157111438e-01
246500000 9.028155551252e-01 -3.428812831234e-01 4.458276544005e-03 9.138887155161e-03 4.458276544005e-03 9.138887155161e-03 9.028155551252e-01 -3.428812831234e-01
247000000 9.016514252077e-01 -3.444546012098e-01 4.614110923561e-03 9.212080888850e-03 4.614110923561e-03 9.212080888850e-03 9.016514252077e-01 -3.444546012098e-01
247500000 9.004709107448e-01 -3.460356691869e-01 4.772872053287e-03 9.284768828986e-03 4.772872053287e-03 9.284768828986e-03 9.004709107448e-01 -3.460356691869e-01
248000000 8.992737419215e-01 -3.476244886646e-01 4.934600385150e-03 9.356917654090e-03 4.934600385150e-03 9.356917654090e-03 8.992737419215e-01 -3.476244886646e-01
248500000 8.980596440592e-01 -3.492210589797e-01 5.099336804215e-03 9.428493160924e-03 5.099336804215e-03 9.428493160924e-03 8.980596440592e-01 -3.492210589797e-01
249000000 8.968283375302e-01 -3.508253770916e-01 5.267122629858e-03 9.499460243662e-03 5.267122629858e-03 9.499460243662e-03 8.968283375302e-01 -3.508253770916e-01
249500000 8.955795376718e-01 -3.524374374758e-01 5.437999616748e-03 9.569782872579e-03 5.437999616748e-03 9.569782872579e-03 8.955795376718e-01 -3.524374374758e-01
250000000 8.943129546985e-01 -3.540572320118e-01 5.612009955595e-03 9.639424072246e-03 5.612009955595e-03 9.639424072246e-03 8.943129546985e-01 -3.540572320118e-01
250500000 8.930282936145e-01 -3.556847498678e-01 5.789196273627e-03 9.708345899210e-03 5.789196273627e-03 9.708345899210e-03 8.930282936145e-01 -3.556847498678e-01
251000000 8.917252541240e-01 -3.573199773809e-01 5.969601634806e-03 9.776509419166e-03 5.969601634806e-03 9.776509419166e-03 8.917252541240e-01 -3.573199773809e-01
251500000 8.904035305421e-01 -3.589628979321e-01 6.153269539735e-03 9.843874683605e-03 6.153269539735e-03 9.843874683605e-03 8.904035305421e-01 -3.589628979321e-01
252000000 8.890628117035e-01 -3.606134918175e-01 6.340243925261e-03 9.910400705925e-03 6.340243925261e-03 9.910400705925e-03 8.890628117035e-01 -3.606134918175e-01
252500000 8.877027808718e-01 -3.622717361143e-01 6.530569163735e-03 9.976045437003e-03 6.530569163735e-03 9.976045437003e-03 8.877027808718e-01 -3.622717361143e-01
253000000 8.863231156466e-01 -3.639376045418e-01 6.724290061922e-03 1.004076574021e-02 6.724290061922e-03 1.004076574021e-02 8.863231156466e-01 -3.639376045418e-01
253500000 8.849234878717e-01 -3.656110673172e-01 6.921451859529e-03 1.010451736588e-02 6.921451859529e-03 1.010451736588e-02 8.849234878717e-01 -3.656110673172e-01
254000000 8.835035635413e-01 -3.672920910063e-01 7.122100227329e-03 1.016725492518e-02 7.122100227329e-03 1.016725492518e-02 8.835035635413e-01 -3.672920910063e-01
254500000 8.820630027062e-01 -3.689806383683e-01 7.326281264858e-03 1.022893186345e-02 7.326281264858e-03 1.022893186345e-02 8.820630027062e-01 -3.689806383683e-01
255000000 8.806014593802e-01 -3.706766681951e-01 7.534041497656e-03 1.028950043292e-02 7.534041497656e-03 1.028950043292e-02 8.806014593802e-01 -3.706766681951e-01
255500000 8.791185814450e-01 -3.723801351445e-01 7.745427874030e-03 1.034891166483e-02 7.745427874030e-03 1.034891166483e-02 8.791185814450e-01 -3.723801351445e-01
256000000 8.776140105557e-01 -3.740909895680e-01 7.960487761300e-03 1.040711534100e-02 7.960487761300e-03 1.040711534100e-02 8.776140105557e-01 -3.740909895680e-01
256500000 8.760873820461e-01 -3.758091773308e-01 8.179268941505e-03 1.046405996473e-02 8.179268941505e-03 1.046405996473e-02 8.760873820461e-01 -3.758091773308e-01
257000000 8.745383248335e-01 -3.775346396270e-01 8.401819606536e-03 1.051969273112e-02 8.401819606536e-03 1.051969273112e-02 8.745383248335e-01 -3.775346396270e-01
257500000 8.729664613241e-01 -3.792673127864e-01 8.628188352665e-03 1.057395949679e-02 8.628188352665e-03 1.057395949679e-02 8.729664613241e-01 -3.792673127864e-01
258000000 8.713714073180e-01 -3.810071280760e-01 8.858424174418e-03 1.062680474892e-02 8.858424174418e-03 1.062680474892e-02 8.713714073180e-01 -3.810071280760e-01
258500000 8.697527719153e-01 -3.827540114923e-01 9.092576457789e-03 1.067817157370e-02 9.092576457789e-03 1.067817157370e-02 8.697527719153e-01 -3.827540114923e-01
259000000 8.681101574220e-01 -3.845078835483e-01 9.330694972710e-03 1.072800162414e-02 9.330694972710e-03 1.072800162414e-02 8.681101574220e-01 -3.845078835483e-01
259500000 8.664431592569e-01 -3.862686590508e-01 9.572829864788e-03 1.077623508724e-02 9.572829864788e-03 1.077623508724e-02 8.664431592569e-01 -3.862686590508e-01
260000000 8.647513658591e-01 -3.880362468713e-01 9.819031646218e-03 1.082281065051e-02 9.819031646218e-03 1.082281065051e-02 8.647513658591e-01 -3.880362468713e-01
260500000 8.630343585964e-01 -3.898105497076e-01 1.006935118586e-02 1.086766546786e-02 1.006935118586e-02 1.086766546786e-02 8.630343585964e-01 -3.898105497076e-01
261000000 8.612917116753e-01 -3.915914638376e-01 1.032383969842e-02 1.091073512485e-02 1.032383969842e-02 1.091073512485e-02 8.612917116753e-01 -3.915914638376e-01
261500000 8.595229920517e-01 -3.933788788641e-01 1.058254873270e-02 1.095195360326e-02 1.058254873270e-02 1.095195360326e-02 8.595229920517e-01 -3.933788788641e-01
262000000 8.577277593437e-01 -3.951726774504e-01 1.084553015883e-02 1.099125324508e-02 1.084553015883e-02 1.099125324508e-02 8.577277593437e-01 -3.951726774504e-01
262500000 8.559055657458e-01 -3.969727350472e-01 1.111283615446e-02 1.102856471583e-02 1.111283615446e-02 1.102856471583e-02 8.559055657458e-01 -3.969727350472e-01
263000000 8.540559559455e-01 -3.987789196091e-01 1.138451918987e-02 1.106381696721e-02 1.138451918987e-02 1.106381696721e-02 8.540559559455e-01 -3.987789196091e-01
263500000 8.521784670422e-01 -4.005910913015e-01 1.166063201190e-02 1.109693719918e-02 1.166063201190e-02 1.109693719918e-02 8.521784670422e-01 -4.005910913015e-01
264000000 8.502726284678e-01 -4.024091021980e-01 1.194122762666e-02 1.112785082141e-02 1.194122762666e-02 1.112785082141e-02 8.502726284678e-01 -4.024091021980e-01
264500000 8.483379619117e-01 -4.042327959661e-01 1.222635928094e-02 1.115648141406e-02 1.222635928094e-02 1.115648141406e-02 8.483379619117e-01 -4.042327959661e-01
265000000 8.463739812476e-01 -4.060620075431e-01 1.251608044226e-02 1.118275068805e-02 1.251608044226e-02 1.118275068805e-02 8.463739812476e-01 -4.060620075431e-01
265500000 8.443801924649e-01 -4.078965628004e-01 1.281044477756e-02 1.120657844464e-02 1.281044477756e-02 1.120657844464e-02 8.443801924649e-01 -4.078965628004e-01
266000000 8.423560936029e-01 -4.097362781961e-01 1.310950613030e-02 1.122788253452e-02 1.310950613030e-02 1.122788253452e-02 8.423560936029e-01 -4.097362781961e-01
266500000 8.403011746903e-01 -4.115809604168e-01 1.341331849603e-02 1.124657881634e-02 1.341331849603e-02 1.124657881634e-02 8.403011746903e-01 -4.115809604168e-01
267000000 8.382149176885e-01 -4.134304060062e-01 1.372193599634e-02 1.126258111460e-02 1.372193599634e-02 1.126258111460e-02 8.382149176885e-01 -4.134304060062e-01
267500000 8.360967964410e-01 -4.152844009817e-01 1.403541285099e-02 1.127580117719e-02 1.403541285099e-02 1.127580117719e-02 8.360967964410e-01 -4.152844009817e-01
268000000 8.339462766269e-01 -4.171427204388e-01 1.435380334828e-02 1.128614863229e-02 1.435380334828e-02 1.128614863229e-02 8.339462766269e-01 -4.171427204388e-01
268500000 8.317628157221e-01 -4.190051281410e-01 1.467716181352e-02 1.129353094494e-02 1.467716181352e-02 1.129353094494e-02 8.317628157221e-01 -4.190051281410e-01
269000000 8.295458629655e-01 -4.208713760978e-01 1.500554257540e-02 1.129785337310e-02 1.500554257540e-02 1.129785337310e-02 8.295458629655e-01 -4.208713760978e-01
269500000 8.272948593336e-01 -4.227412041279e-01 1.533899993037e-02 1.129901892334e-02 1.533899993037e-02 1.129901892334e-02 8.272948593336e-01 -4.227412041279e-01
270000000 8.250092375214e-01 -4.246143394088e-01 1.567758810473e-02 1.129692830623e-02 1.567758810473e-02 1.129692830623e-02 8.250092375214e-01 -4.246143394088e-01
270500000 8.226884219327e-01 -4.264904960110e-01 1.602136121446e-02 1.129147989135e-02 1.602136121446e-02 1.129147989135e-02 8.226884219327e-01 -4.264904960110e-01
271000000 8.203318286788e-01 -4.283693744191e-01 1.637037322257e-02 1.128256966214e-02 1.637037322257e-02 1.128256966214e-02 8.203318286788e-01 -4.283693744191e-01
271500000 8.179388655866e-01 -4.302506610356e-01 1.672467789396e-02 1.127009117043e-02 1.672467789396e-02 1.127009117043e-02 8.179388655866e-01 -4.302506610356e-01
272000000 8.155089322171e-01 -4.321340276710e-01 1.708432874762e-02 1.125393549094e-02 1.708432874762e-02 1.125393549094e-02 8.155089322171e-01 -4.321340276710e-01
272500000 8.130414198951e-01 -4.340191310174e-01 1.744937900603e-02 1.123399117567e-02 1.744937900603e-02 1.123399117567e-02 8.130414198951e-01 -4.340191310174e-01
273000000 8.105357117503e-01 -4.359056121052e-01 1.781988154164e-02 1.121014420823e-02 1.781988154164e-02 1.121014420823e-02 8.105357117503e-01 -4.359056121052e-01
273500000 8.079911827716e-01 -4.377930957449e-01 1.819588882037e-02 1.118227795830e-02 1.819588882037e-02 1.118227795830e-02 8.079911827716e-01 -4.377930957449e-01
274000000 8.054071998740e-01 -4.396811899508e-01 1.857745284189e-02 1.115027313627e-02 1.857745284189e-02 1.115027313627e-02 8.054071998740e-01 -4.396811899508e-01
274500000 8.027831219811e-01 -4.415694853483e-01 1.896462507657e-02 1.111400774799e-02 1.896462507657e-02 1.111400774799e-02 8.027831219811e-01 -4.415694853483e-01
275000000 8.001183001219e-01 -4.434575545633e-01 1.935745639898e-02 1.107335705005e-02 1.935745639898e-02 1.107335705005e-02 8.001183001219e-01 -4.434575545633e-01
275500000 7.974120775448e-01 -4.453449515950e-01 1.975599701782e-02 1.102819350531e-02 1.975599701782e-02 1.102819350531e-02 7.974120775448e-01 -4.453449515950e-01
276000000 7.946637898485e-01 -4.472312111699e-01 2.016029640199e-02 1.097838673915e-02 2.016029640199e-02 1.097838673915e-02 7.946637898485e-01 -4.472312111699e-01
276500000 7.918727651322e-01 -4.491158480779e-01 2.057040320279e-02 1.092380349631e-02 2.057040320279e-02 1.092380349631e-02 7.918727651322e-01 -4.491158480779e-01
277000000 7.890383241649e-01 -4.509983564905e-01 2.098636517201e-02 1.086430759858e-02 2.098636517201e-02 1.086430759858e-02 7.890383241649e-01 -4.509983564905e-01
277500000 7.861597805761e-01 -4.528782092604e-01 2.140822907572e-02 1.079975990341e-02 2.140822907572e-02 1.079975990341e-02 7.861597805761e-01 -4.528782092604e-01
278000000 7.832364410689e-01 -4.547548572021e-01 2.183604060366e-02 1.073001826366e-02 2.183604060366e-02 1.073001826366e-02 7.832364410689e-01 -4.547548572021e-01
278500000 7.802676056566e-01 -4.566277283546e-01 2.226984427395e-02 1.065493748864e-02 2.226984427395e-02 1.065493748864e-02 7.802676056566e-01 -4.566277283546e-01
279000000 7.772525679245e-01 -4.584962272248e-01 2.270968333305e-02 1.057436930652e-02 2.270968333305e-02 1.057436930652e-02 7.772525679245e-01 -4.584962272248e-01
279500000 7.741906153182e-01 -4.603597340119e-01 2.315559965064e-02 1.048816232843e-02 2.315559965064e-02 1.048816232843e-02 7.741906153182e-01 -4.603597340119e-01
280000000 7.710810294606e-01 -4.622176038137e-01 2.360763360937e-02 1.039616201439e-02 2.360763360937e-02 1.039616201439e-02 7.710810294606e-01 -4.622176038137e-01
280500000 7.679230864977e-01 -4.640691658136e-01 2.406582398922e-02 1.029821064125e-02 2.406582398922e-02 1.029821064125e-02 7.679230864977e-01 -4.640691658136e-01
281000000 7.647160574769e-01 -4.659137224496e-01 2.453020784619e-02 1.019414727294e-02 2.453020784619e-02 1.019414727294e-02 7.647160574769e-01 -4.659137224496e-01
281500000 7.614592087578e-01 -4.677505485640e-01 2.500082038527e-02 1.008380773320e-02 2.500082038527e-02 1.008380773320e-02 7.614592087578e-01 -4.677505485640e-01
282000000 7.581518024587e-01 -4.695788905364e-01 2.547769482735e-02 9.967024581089e-03 2.547769482735e-02 9.967024581089e-03 7.581518024587e-01 -4.695788905364e-01
282500000 7.547930969392e-01 -4.713979653970e-01 2.596086226994e-02 9.843627089544e-03 2.596086226994e-02 9.843627089544e-03 7.547930969392e-01 -4.713979653970e-01
283000000 7.513823473231e-01 -4.732069599245e-01 2.645035154147e-02 9.713441227287e-03 2.645035154147e-02 9.713441227287e-03 7.513823473231e-01 -4.732069599245e-01
283500000 7.479188060610e-01 -4.750050297255e-01 2.694618904884e-02 9.576289644347e-03 2.694618904884e-02 9.576289644347e-03 7.479188060610e-01 -4.750050297255e-01
284000000 7.444017235368e-01 -4.767912982987e-01 2.744839861827e-02 9.431991661566e-03 2.744839861827e-02 9.431991661566e-03 7.444017235368e-01 -4.767912982987e-01
284500000 7.408303487196e-01 -4.785648560824e-01 2.795700132890e-02 9.280363264428e-03 2.795700132890e-02 9.280363264428e-03 7.408303487196e-01 -4.785648560824e-01
285000000 7.372039298628e-01 -4.803247594887e-01 2.847201533922e-02 9.121217101555e-03 2.847201533922e-02 9.121217101555e-03 7.372039298628e-01 -4.803247594887e-01
285500000 7.335217152540e-01 -4.820700299219e-01 2.899345570590e-02 8.954362488285e-03 2.899345570590e-02 8.954362488285e-03 7.335217152540e-01 -4.820700299219e-01
286000000 7.297829540162e-01 -4.837996527861e-01 2.952133419494e-02 8.779605415719e-03 2.952133419494e-02 8.779605415719e-03 7.297829540162e-01 -4.837996527861e-01
286500000 7.259868969656e-01 -4.855125764790e-01 3.005565908484e-02 8.596748565680e-03 3.005565908484e-02 8.596748565680e-03 7.259868969656e-01 -4.855125764790e-01
287000000 7.221327975250e-01 -4.872077113775e-01 3.059643496166e-02 8.405591332023e-03 3.059643496166e-02 8.405591332023e-03 7.221327975250e-01 -4.872077113775e-01
287500000 7.182199126992e-01 -4.888839288130e-01 3.114366250574e-02 8.205929848794e-03 3.114366250574e-02 8.205929848794e-03 7.182199126992e-01 -4.888839288130e-01
288000000 7.142475041119e-01 -4.905400600398e-01 3.169733826980e-02 7.997557025711e-03 3.169733826980e-02 7.997557025711e-03 7.142475041119e-01 -4.905400600398e-01
288500000 7.102148391096e-01 -4.921748951989e-01 3.225745444845e-02 7.780262591518e-03 3.225745444845e-02 7.780262591518e-03 7.102148391096e-01 -4.921748951989e-01
289000000 7.061211919323e-01 -4.937871822776e-01 3.282399863866e-02 7.553833145738e-03 3.282399863866e-02 7.553833145738e-03 7.061211919323e-01 -4.937871822776e-01
289500000 7.019658449573e-01 -4.953756260687e-01 3.339695359125e-02 7.318052219421e-03 3.339695359125e-02 7.318052219421e-03 7.019658449573e-01 -4.953756260687e-01
290000000 6.977480900161e-01 -4.969388871309e-01 3.397629695314e-02 7.072700345472e-03 3.397629695314e-02 7.072700345472e-03 6.977480900161e-01 -4.969388871309e-01
290500000 6.934672297887e-01 -4.984755807532e-01 3.456200100027e-02 6.817555139197e-03 3.456200100027e-02 6.817555139197e-03 6.934672297887e-01 -4.984755807532e-01
291000000 6.891225792788e-01 -4.999842759269e-01 3.515403236102e-02 6.552391389717e-03 3.515403236102e-02 6.552391389717e-03 6.891225792788e-01 -4.999842759269e-01
291500000 6.847134673711e-01 -5.014634943268e-01 3.575235173013e-02 6.276981162922e-03 3.575235173013e-02 6.276981162922e-03 6.847134673711e-01 -5.014634943268e-01
292000000 6.802392384755e-01 -5.029117093075e-01 3.635691357292e-02 5.991093916686e-03 3.635691357292e-02 5.991093916686e-03 6.802392384755e-01 -5.029117093075e-01
292500000 6.756992542604e-01 -5.043273449162e-01 3.696766581993e-02 5.694496629059e-03 3.696766581993e-02 5.694496629059e-03 6.756992542604e-01 -5.043273449162e-01
293000000 6.710928954777e-01 -5.057087749274e-01 3.758454955179e-02 5.386953940206e-03 3.758454955179e-02 5.386953940206e-03 6.710928954777e-01 -5.057087749274e-01
293500000 6.664195638831e-01 -5.070543219035e-01 3.820749867448e-02 5.068228308863e-03 3.820749867448e-02 5.068228308863e-03 6.664195638831e-01 -5.070543219035e-01
294000000 6.616786842543e-01 -5.083622562864e-01 3.883643958495e-02 4.738080184123e-03 3.883643958495e-02 4.738080184123e-03 6.616786842543e-01 -5.083622562864e-01
294500000 6.568697065100e-01 -5.096307955241e-01 3.947129082726e-02 4.396268193380e-03 3.947129082726e-02 4.396268193380e-03 6.568697065100e-01 -5.096307955241e-01
295000000 6.519921079317e-01 -5.108581032390e-01 4.011196273927e-02 4.042549347273e-03 4.011196273927e-02 4.042549347273e-03 6.519921079317e-01 -5.108581032390e-01
295500000 6.470453954921e-01 -5.120422884431e-01 4.075835709027e-02 3.676679262509e-03 4.075835709027e-02 3.676679262509e-03 6.470453954921e-01 -5.120422884431e-01
296000000 6.420291082915e-01 -5.131814048062e-01 4.141036670949e-02 3.298412403441e-03 4.141036670949e-02 3.298412403441e-03 6.420291082915e-01 -5.131814048062e-01
296500000 6.369428201046e-01 -5.142734499837e-01 4.206787510614e-02 2.907502343310e-03 4.206787510614e-02 2.907502343310e-03 6.369428201046e-01 -5.142734499837e-01
297000000 6.317861420407e-01 -5.153163650112e-01 4.273075608100e-02 2.503702046067e-03 4.273075608100e-02 2.503702046067e-03 6.317861420407e-01 -5.153163650112e-01
297500000 6.265587253169e-01 -5.163080337734e-01 4.339887333028e-02 2.086764169680e-03 4.339887333028e-02 2.086764169680e-03 6.265587253169e-01 -5.163080337734e-01
298000000 6.212602641489e-01 -5.172462825545e-01 4.407208004201e-02 1.656441391881e-03 4.407208004201e-02 1.656441391881e-03 6.212602641489e-01 -5.172462825545e-01
298500000 6.158904987576e-01 -5.181288796795e-01 4.475021848572e-02 1.212486759255e-03 4.475021848572e-02 1.212486759255e-03 6.158904987576e-01 -5.181288796795e-01
299000000 6.104492184944e-01 -5.189535352536e-01 4.543311959595e-02 7.546540606270e-04 4.543311959595e-02 7.546540606270e-04 6.104492184944e-01 -5.189535352536e-01
299500000 6.049362650847e-01 -5.197179010108e-01 4.612060255043e-02 2.826982256293e-04 4.612060255043e-02 2.826982256293e-04 6.049362650847e-01 -5.197179010108e-01
300000000 5.993515359901e-01 -5.204195702794e-01 4.681247434366e-02 -2.036242506151e-04 4.681247434366e-02 -2.036242506151e-04 5.993515359901e-01 -5.204195702794e-01
300500000 5.936949878881e-01 -5.210560780758e-01 4.750852935700e-02 -7.045548558313e-04 4.750852935700e-02 -7.045548558313e-04 5.936949878881e-01 -5.210560780758e-01
301000000 5.879666402693e-01 -5.216249013367e-01 4.820854892617e-02 -1.220332581091e-03 4.820854892617e-02 -1.220332581091e-03 5.879666402693e-01 -5.216249013367e-01
301500000 5.821665791496e-01 -5.221234593004e-01 4.891230090742e-02 -1.751193412654e-03 4.891230090742e-02 -1.751193412654e-03 5.821665791496e-01 -5.221234593004e-01
302000000 5.762949608959e-01 -5.225491140486e-01 4.961953924361e-02 -2.297369794378e-03 4.961953924361e-02 -2.297369794378e-03 5.762949608959e-01 -5.225491140486e-01
302500000 5.703520161609e-01 -5.228991712217e-01 5.033000353163e-02 -2.859090059974e-03 5.033000353163e-02 -2.859090059974e-03 5.703520161609e-01 -5.228991712217e-01
303000000 5.643380539255e-01 -5.231708809171e-01 5.104341859273e-02 -3.436577834450e-03 5.104341859273e-02 -3.436577834450e-03 5.643380539255e-01 -5.231708809171e-01
303500000 5.582534656421e-01 -5.233614387859e-01 5.175949404739e-02 -4.030051404163e-03 5.175949404739e-02 -4.030051404163e-03 5.582534656421e-01 -5.233614387859e-01
304000000 5.520987294744e-01 -5.234679873390e-01 5.247792389657e-02 -4.639723054973e-03 5.247792389657e-02 -4.639723054973e-03 5.520987294744e-01 -5.234679873390e-01
304500000 5.458744146265e-01 -5.234876174760e-01 5.319838611127e-02 -5.265798378099e-03 5.319838611127e-02 -5.265798378099e-03 5.458744146265e-01 -5.234876174760e-01
305000000 5.395811857551e-01 -5.234173702504e-01 5.392054223264e-02 -5.908475543397e-03 5.392054223264e-02 -5.908475543397e-03 5.395811857551e-01 -5.234173702504e-01
305500000 5.332198074545e-01 -5.232542388851e-01 5.464403698473e-02 -6.567944539876e-03 5.464403698473e-02 -6.567944539876e-03 5.332198074545e-01 -5.232542388851e-01
306000000 5.267911488059e-01 -5.229951710507e-01 5.536849790246e-02 -7.244386383438e-03 5.536849790246e-02 -7.244386383438e-03 5.267911488059e-01 -5.229951710507e-01
306500000 5.202961879793e-01 -5.226370714206e-01 5.609353497728e-02 -7.937972291969e-03 5.609353497728e-02 -7.937972291969e-03 5.202961879793e-01 -5.226370714206e-01
307000000 5.137360168759e-01 -5.221768045176e-01 5.681874032339e-02 -8.648862828065e-03 5.681874032339e-02 -8.648862828065e-03 5.137360168759e-01 -5.221768045176e-01
307500000 5.071118457977e-01 -5.216111978630e-01 5.754368786723e-02 -9.377207009886e-03 5.754368786723e-02 -9.377207009886e-03 5.071118457977e-01 -5.216111978630e-01
308000000 5.004250081284e-01 -5.209370454442e-01 5.826793306356e-02 -1.012314139082e-02 5.826793306356e-02 -1.012314139082e-02 5.004250081284e-01 -5.209370454442e-01
308500000 4.936769650093e-01 -5.201511115119e-01 5.899101264114e-02 -1.088678910886e-02 5.899101264114e-02 -1.088678910886e-02 4.936769650093e-01 -5.201511115119e-01
309000000 4.868693099931e-01 -5.192501347192e-01 5.971244438141e-02 -1.166825890686e-02 5.971244438141e-02 -1.166825890686e-02 4.868693099931e-01 -5.192501347192e-01
309500000 4.800037736538e-01 -5.182308326159e-01 6.043172693381e-02 -1.246764412498e-02 6.043172693381e-02 -1.246764412498e-02 4.800037736538e-01 -5.182308326159e-01
310000000 4.730822281339e-01 -5.170899065073e-01 6.114833967124e-02 -1.328502166718e-02 6.114833967124e-02 -1.328502166718e-02 4.730822281339e-01 -5.170899065073e-01
310500000 4.661066916038e-01 -5.158240466886e-01 6.186174258949e-02 -1.412045094343e-02 6.186174258949e-02 -1.412045094343e-02 4.661066916038e-01 -5.158240466886e-01
311000000 4.590793326110e-01 -5.144299380647e-01 6.257137625458e-02 -1.497397279025e-02 6.257137625458e-02 -1.497397279025e-02 4.590793326110e-01 -5.144299380647e-01
311500000 4.520024742904e-01 -5.129042661610e-01 6.327666180193e-02 -1.584560837186e-02 6.327666180193e-02 -1.584560837186e-02 4.520024742904e-01 -5.129042661610e-01
312000000 4.448785984104e-01 -5.112437235348e-01 6.397700099141e-02 -1.673535806506e-02 6.397700099141e-02 -1.673535806506e-02 4.448785984104e-01 -5.112437235348e-01
312500000 4.377103492238e-01 -5.094450165895e-01 6.467177632253e-02 -1.764320033104e-02 6.467177632253e-02 -1.764320033104e-02 4.377103492238e-01 -5.094450165895e-01
313000000 4.305005370933e-01 -5.075048727967e-01 6.536035121376e-02 -1.856909057778e-02 6.536035121376e-02 -1.856909057778e-02 4.305005370933e-01 -5.075048727967e-01
313500000 4.232521418584e-01 -5.054200483256e-01 6.604207025033e-02 -1.951296001707e-02 6.604207025033e-02 -1.951296001707e-02 4.232521418584e-01 -5.054200483256e-01
314000000 4.159683159112e-01 -5.031873360807e-01 6.671625950453e-02 -2.047471452053e-02 6.671625950453e-02 -2.047471452053e-02 4.159683159112e-01 -5.031873360807e-01
314500000 4.086523869443e-01 -5.008035741421e-01 6.738222693273e-02 -2.145423347939e-02 6.738222693273e-02 -2.145423347939e-02 4.086523869443e-01 -5.008035741421e-01
315000000 4.013078603360e-01 -4.982656546047e-01 6.803926285314e-02 -2.245136867338e-02 6.803926285314e-02 -2.245136867338e-02 4.013078603360e-01 -4.982656546047e-01
315500000 3.939384211343e-01 -4.955705328056e-01 6.868664050809e-02 -2.346594315398e-02 6.868664050809e-02 -2.346594315398e-02 3.939384211343e-01 -4.955705328056e-01
316000000 3.865479356026e-01 -4.927152369280e-01 6.932361671482e-02 -2.449775014839e-02 6.932361671482e-02 -2.449775014839e-02 3.865479356026e-01 -4.927152369280e-01
316500000 3.791404522879e-01 -4.896968779683e-01 6.994943260807e-02 -2.554655199016e-02 6.994943260807e-02 -2.554655199016e-02 3.791404522879e-01 -4.896968779683e-01
317000000 3.717202025724e-01 -4.865126600452e-01 7.056331447792e-02 -2.661207908357e-02 7.056331447792e-02 -2.661207908357e-02 3.717202025724e-01 -4.865126600452e-01
317500000 3.642916006687e-01 -4.831598910309e-01 7.116447470576e-02 -2.769402890848e-02 7.116447470576e-02 -2.769402890848e-02 3.642916006687e-01 -4.831598910309e-01
318000000 3.568592430218e-01 -4.796359934775e-01 7.175211280116e-02 -2.879206507324e-02 7.175211280116e-02 -2.879206507324e-02 3.568592430218e-01 -4.796359934775e-01
318500000 3.494279070761e-01 -4.759385158087e-01 7.232541654162e-02 -2.990581642325e-02 7.232541654162e-02 -2.990581642325e-02 3.494279070761e-01 -4.759385158087e-01
319000000 3.420025493729e-01 -4.720651437443e-01 7.288356321729e-02 -3.103487621318e-02 7.288356321729e-02 -3.103487621318e-02 3.420025493729e-01 -4.720651437443e-01
319500000 3.345883029404e-01 -4.680137119180e-01 7.342572098157e-02 -3.217880135086e-02 7.342572098157e-02 -3.217880135086e-02 3.345883029404e-01 -4.680137119180e-01
320000000 3.271904739413e-01 -4.637822156479e-01 7.395105030851e-02 -3.333711172141e-02 7.395105030851e-02 -3.333711172141e-02 3.271904739413e-01 -4.637822156479e-01
320500000 3.198145375465e-01 -4.593688228135e-01 7.445870555692e-02 -3.450928959985e-02 7.445870555692e-02 -3.450928959985e-02 3.198145375465e-01 -4.593688228135e-01
321000000 3.124661330046e-01 -4.547718857881e-01 7.494783664061e-02 -3.569477916083e-02 7.494783664061e-02 -3.569477916083e-02 3.124661330046e-01 -4.547718857881e-01
321500000 3.051510578784e-01 -4.499899533734e-01 7.541759080342e-02 -3.689298609400e-02 7.541759080342e-02 -3.689298609400e-02 3.051510578784e-01 -4.499899533734e-01
322000000 2.978752614274e-01 -4.450217826779e-01 7.586711449684e-02 -3.810327733341e-02 7.586711449684e-02 -3.810327733341e-02 2.978752614274e-01 -4.450217826779e-01
322500000 2.906448371150e-01 -4.398663508771e-01 7.629555535725e-02 -3.932498090931e-02 7.629555535725e-02 -3.932498090931e-02 2.906448371150e-01 -4.398663508771e-01
323000000 2.834660142247e-01 -4.345228667895e-01 7.670206427901e-02 -4.055738593042e-02 7.670206427901e-02 -4.055738593042e-02 2.834660142247e-01 -4.345228667895e-01
323500000 2.763451485764e-01 -4.289907822018e-01 7.708579757861e-02 -4.179974270428e-02 7.708579757861e-02 -4.179974270428e-02 2.763451485764e-01 -4.289907822018e-01
324000000 2.692887123367e-01 -4.232698028686e-01 7.744591924426e-02 -4.305126300320e-02 7.744591924426e-02 -4.305126300320e-02 2.692887123367e-01 -4.232698028686e-01
324500000 2.623032829236e-01 -4.173598991164e-01 7.778160326426e-02 -4.431112048256e-02 7.778160326426e-02 -4.431112048256e-02 2.623032829236e-01 -4.173598991164e-01
325000000 2.553955310145e-01 -4.112613159722e-01 7.809203602663e-02 -4.557845125767e-02 7.809203602663e-02 -4.557845125767e-02 2.553955310145e-01 -4.112613159722e-01
325500000 2.485722076679e-01 -4.049745827424e-01 7.837641878151e-02 -4.685235464472e-02 7.837641878151e-02 -4.685235464472e-02 2.485722076679e-01 -4.049745827424e-01
326000000 2.418401305828e-01 -3.985005219613e-01 7.863397015673e-02 -4.813189407057e-02 7.863397015673e-02 -4.813189407057e-02 2.418401305828e-01 -3.985005219613e-01
326500000 2.352061695203e-01 -3.918402576320e-01 7.886392871630e-02 -4.941609815530e-02 7.886392871630e-02 -4.941609815530e-02 2.352061695203e-01 -3.918402576320e-01
327000000 2.286772309248e-01 -3.849952226808e-01 7.906555555043e-02 -5.070396197018e-02 7.906555555043e-02 -5.070396197018e-02 2.286772309248e-01 -3.849952226808e-01
327500000 2.222602417862e-01 -3.779671655490e-01 7.923813688494e-02 -5.199444847300e-02 7.923813688494e-02 -5.199444847300e-02 2.222602417862e-01 -3.779671655490e-01
328000000 2.159621327947e-01 -3.707581558452e-01 7.938098669716e-02 -5.328649012134e-02 7.938098669716e-02 -5.328649012134e-02 2.159621327947e-01 -3.707581558452e-01
328500000 2.097898208441e-01 -3.633705889878e-01 7.949344932452e-02 -5.457899066311e-02 7.949344932452e-02 -5.457899066311e-02 2.097898208441e-01 -3.633705889878e-01
329000000 2.037501909523e-01 -3.558071897683e-01 7.957490205177e-02 -5.587082710255e-02 7.957490205177e-02 -5.587082710255e-02 2.037501909523e-01 -3.558071897683e-01
329500000 1.978500776690e-01 -3.480710147697e-01 7.962475766165e-02 -5.716085183826e-02 7.962475766165e-02 -5.716085183826e-02 1.978500776690e-01 -3.480710147697e-01
330000000 1.920962460533e-01 -3.401654535833e-01 7.964246693401e-02 -5.844789496879e-02 7.964246693401e-02 -5.844789496879e-02 1.920962460533e-01 -3.401654535833e-01
330500000 1.864953723066e-01 -3.320942287688e-01 7.962752107759e-02 -5.973076675950e-02 7.962752107759e-02 -5.973076675950e-02 1.864953723066e-01 -3.320942287688e-01
331000000 1.810540241541e-01 -3.238613945124e-01 7.957945407878e-02 -6.100826026339e-02 7.957945407878e-02 -6.100826026339e-02 1.810540241541e-01 -3.238613945124e-01
331500000 1.757786410750e-01 -3.154713339444e-01 7.949784495144e-02 -6.227915408660e-02 7.949784495144e-02 -6.227915408660e-02 1.757786410750e-01 -3.154713339444e-01
332000000 1.706755144838e-01 -3.069287550855e-01 7.938231987211e-02 -6.354221528856e-02 7.938231987211e-02 -6.354221528856e-02 1.706755144838e-01 -3.069287550855e-01
332500000 1.657507679719e-01 -2.982386854019e-01 7.923255418512e-02 -6.479620240471e-02 7.923255418512e-02 -6.479620240471e-02 1.657507679719e-01 -2.982386854019e-01
333000000 1.610103377211e-01 -2.894064649552e-01 7.904827426256e-02 -6.603986857891e-02 7.904827426256e-02 -6.603986857891e-02 1.610103377211e-01 -2.894064649552e-01
333500000 1.564599532014e-01 -2.804377381483e-01 7.882925920454e-02 -6.727196479101e-02 7.882925920454e-02 -6.727196479101e-02 1.564599532014e-01 -2.804377381483e-01
334000000 1.521051182717e-01 -2.713384440733e-01 7.857534236610e-02 -6.849124316420e-02 7.857534236610e-02 -6.849124316420e-02 1.521051182717e-01 -2.713384440733e-01
334500000 1.479510927960e-01 -2.621148054836e-01 7.828641269790e-02 -6.969646033552e-02 7.828641269790e-02 -6.969646033552e-02 1.479510927960e-01 -2.621148054836e-01
335000000 1.440028748922e-01 -2.527733164177e-01 7.796241588873e-02 -7.088638087205e-02 7.796241588873e-02 -7.088638087205e-02 1.440028748922e-01 -2.527733164177e-01
335500000 1.402651839263e-01 -2.433207285188e-01 7.760335529948e-02 -7.205978071447e-02 7.760335529948e-02 -7.205978071447e-02 1.402651839263e-01 -2.433207285188e-01
336000000 1.367424443628e-01 -2.337640360999e-01 7.720929267896e-02 -7.321545062913e-02 7.720929267896e-02 -7.321545062913e-02 1.367424443628e-01 -2.337640360999e-01
336500000 1.334387705766e-01 -2.241104600177e-01 7.678034865399e-02 -7.435219964926e-02 7.678034865399e-02 -7.435219964926e-02 1.334387705766e-01 -2.241104600177e-01
337000000 1.303579527278e-01 -2.143674304292e-01 7.631670298730e-02 -7.546885848563e-02 7.631670298730e-02 -7.546885848563e-02 1.303579527278e-01 -2.143674304292e-01
337500000 1.275034437946e-01 -2.045425685108e-01 7.581859459861e-02 -7.656428288699e-02 7.581859459861e-02 -7.656428288699e-02 1.275034437946e-01 -2.045425685108e-01
338000000 1.248783478510e-01 -1.946436672336e-01 7.528632134607e-02 -7.763735693048e-02 7.528632134607e-02 -7.763735693048e-02 1.248783478510e-01 -1.946436672336e-01
338500000 1.224854096677e-01 -1.846786712943e-01 7.472023956676e-02 -7.868699622288e-02 7.472023956676e-02 -7.868699622288e-02 1.224854096677e-01 -1.846786712943e-01
339000000 1.203270057074e-01 -1.746556563071e-01 7.412076337701e-02 -7.971215099350e-02 7.412076337701e-02 -7.971215099350e-02 1.203270057074e-01 -1.746556563071e-01
339500000 1.184051365724e-01 -1.645828073722e-01 7.348836373501e-02 -8.071180906080e-02 7.348836373501e-02 -8.071180906080e-02 1.184051365724e-01 -1.645828073722e-01
340000000 1.167214209554e-01 -1.544683971390e-01 7.282356727001e-02 -8.168499865504e-02 7.282356727001e-02 -8.168499865504e-02 1.167214209554e-01 -1.544683971390e-01
340500000 1.152770911300e-01 -1.443207634868e-01 7.212695488419e-02 -8.263079108088e-02 7.212695488419e-02 -8.263079108088e-02 1.152770911300e-01 -1.443207634868e-01
341000000 1.140729900078e-01 -1.341482869508e-01 7.139916013495e-02 -8.354830320458e-02 7.139916013495e-02 -8.354830320458e-02 1.140729900078e-01 -1.341482869508e-01
341500000 1.131095697771e-01 -1.239593680196e-01 7.064086740724e-02 -8.443669975192e-02 7.064086740724e-02 -8.443669975192e-02 1.131095697771e-01 -1.239593680196e-01
342000000 1.123868921242e-01 -1.137624044352e-01 6.985280988679e-02 -8.529519540470e-02 6.985280988679e-02 -8.529519540470e-02 1.123868921242e-01 -1.137624044352e-01
342500000 1.119046300302e-01 -1.035657686215e-01 6.903576734678e-02 -8.612305668466e-02 6.903576734678e-02 -8.612305668466e-02 1.119046300302e-01 -1.035657686215e-01
343000000 1.116620711198e-01 -9.337778536951e-02 6.819056376181e-02 -8.691960361605e-02 6.819056376181e-02 -8.691960361605e-02 1.116620711198e-01 -9.337778536951e-02
343500000 1.116581225306e-01 -8.320670990176e-02 6.731806476395e-02 -8.768421115917e-02 6.731806476395e-02 -8.768421115917e-02 1.116581225306e-01 -8.320670990176e-02
344000000 1.118913172598e-01 -7.306070643461e-02 6.641917495701e-02 -8.841631040943e-02 6.641917495701e-02 -8.841631040943e-02 1.118913172598e-01 -7.306070643461e-02
344500000 1.123598219326e-01 -6.294782735278e-02 6.549483510575e-02 -8.911538955819e-02 6.549483510575e-02 -8.911538955819e-02 1.123598219326e-01 -6.294782735278e-02
345000000 1.130614459302e-01 -5.287599310339e-02 6.454601921758e-02 -8.978099461333e-02 6.454601921758e-02 -8.978099461333e-02 1.130614459302e-01 -5.287599310339e-02
345500000 1.139936518036e-01 -4.285297290961e-02 6.357373153465e-02 -9.041272987947e-02 6.357373153465e-02 -9.041272987947e-02 1.139936518036e-01 -4.285297290961e-02
346000000 1.151535668917e-01 -3.288636639622e-02 6.257900345474e-02 -9.101025819962e-02 6.257900345474e-02 -9.101025819962e-02 1.151535668917e-01 -3.288636639622e-02
346500000 1.165379960580e-01 -2.298358621064e-02 6.156289039926e-02 -9.157330096143e-02 6.156289039926e-02 -9.157330096143e-02 1.165379960580e-01 -2.298358621064e-02
347000000 1.181434354483e-01 -1.315184171353e-02 6.052646864677e-02 -9.210163787324e-02 6.052646864677e-02 -9.210163787324e-02 1.181434354483e-01 -1.315184171353e-02
347500000 1.199660871739e-01 -3.398123803637e-03 5.947083215027e-02 -9.259510651641e-02 5.947083215027e-02 -9.259510651641e-02 1.199660871739e-01 -3.398123803637e-03
348000000 1.220018748137e-01 6.270809068832e-03 5.839708935587e-02 -9.305360168206e-02 5.839708935587e-02 -9.305360168206e-02 1.220018748137e-01 6.270809068832e-03
348500000 1.242464596316e-01 1.584844365580e-02 5.730636004028e-02 -9.347707450144e-02 5.730636004028e-02 -9.347707450144e-02 1.242464596316e-01 1.584844365580e-02
349000000 1.266952573996e-01 2.532852339806e-02 5.619977218347e-02 -9.386553138063e-02 5.619977218347e-02 -9.386553138063e-02 1.266952573996e-01 2.532852339806e-02
349500000 1.293434557192e-01 3.470505862136e-02 5.507845889250e-02 -9.421903275108e-02 5.507845889250e-02 -9.421903275108e-02 1.293434557192e-01 3.470505862136e-02
350000000 1.321860317311e-01 4.397233542798e-02 5.394355539116e-02 -9.453769164844e-02 5.394355539116e-02 -9.453769164844e-02 1.321860317311e-01 4.397233542798e-02
350500000 1.352177701081e-01 5.312492328004e-02 5.279619608936e-02 -9.482167213316e-02 5.279619608936e-02 -9.482167213316e-02 1.352177701081e-01 5.312492328004e-02
351000000 1.384332812239e-01 6.215768127979e-02 5.163751174504e-02 -9.507118756650e-02 5.163751174504e-02 -9.507118756650e-02 1.384332812239e-01 6.215768127979e-02
351500000 1.418270193977e-01 7.106576316126e-02 5.046862672996e-02 -9.528649875633e-02 5.046862672996e-02 -9.528649875633e-02 1.418270193977e-01 7.106576316126e-02
352000000 1.453933011150e-01 7.984462101607e-02 4.929065641005e-02 -9.546791198746e-02 4.929065641005e-02 -9.546791198746e-02 1.453933011150e-01 7.984462101607e-02
352500000 1.491263231319e-01 8.849000778374e-02 4.810470464906e-02 -9.561577695112e-02 4.810470464906e-02 -9.561577695112e-02 1.491263231319e-01 8.849000778374e-02
353000000 1.530201803736e-01 9.699797854420e-02 4.691186144366e-02 -9.573048458845e-02 4.691186144366e-02 -9.573048458845e-02 1.530201803736e-01 9.699797854420e-02
353500000 1.570688835442e-01 1.053648906564e-01 4.571320069638e-02 -9.581246486272e-02 4.571320069638e-02 -9.581246486272e-02 1.570688835442e-01 1.053648906564e-01
354000000 1.612663763714e-01 1.135874027929e-01 4.450977813174e-02 -9.586218447463e-02 4.450977813174e-02 -9.586218447463e-02 1.612663763714e-01 1.135874027929e-01
354500000 1.656065524136e-01 1.216624729245e-01 4.330262935969e-02 -9.588014453494e-02 4.330262935969e-02 -9.588014453494e-02 1.656065524136e-01 1.216624729245e-01
355000000 1.700832713684e-01 1.295873553147e-01 4.209276808920e-02 -9.586687820790e-02 4.209276808920e-02 -9.586687820790e-02 1.700832713684e-01 1.295873553147e-01
355500000 1.746903748218e-01 1.373595965851e-01 4.088118449377e-02 -9.582294833877e-02 4.088118449377e-02 -9.582294833877e-02 1.746903748218e-01 1.373595965851e-01
356000000 1.794217013899e-01 1.449770309171e-01 3.966884372944e-02 -9.574894507779e-02 3.966884372944e-02 -9.574894507779e-02 1.794217013899e-01 1.449770309171e-01
356500000 1.842711012088e-01 1.524377744569e-01 3.845668460498e-02 -9.564548351254e-02 3.845668460498e-02 -9.564548351254e-02 1.842711012088e-01 1.524377744569e-01
357000000 1.892324497352e-01 1.597402189925e-01 3.724561840284e-02 -9.551320131968e-02 3.724561840284e-02 -9.551320131968e-02 1.892324497352e-01 1.597402189925e-01
357500000 1.942996608287e-01 1.668830249695e-01 3.603652784863e-02 -9.535275644633e-02 3.603652784863e-02 -9.535275644633e-02 1.942996608287e-01 1.668830249695e-01
358000000 1.994666990901e-01 1.738651139176e-01 3.483026622606e-02 -9.516482483081e-02 3.483026622606e-02 -9.516482483081e-02 1.994666990901e-01 1.738651139176e-01
358500000 2.047275914401e-01 1.806856603532e-01 3.362765663360e-02 -9.495009817101e-02 3.362765663360e-02 -9.495009817101e-02 2.047275914401e-01 1.806856603532e-01
359000000 2.100764379242e-01 1.873440832273e-01 3.242949137834e-02 -9.470928174858e-02 3.242949137834e-02 -9.470928174858e-02 2.100764379242e-01 1.873440832273e-01
359500000 2.155074217402e-01 1.938400369844e-01 3.123653150213e-02 -9.444309231568e-02 3.123653150213e-02 -9.444309231568e-02 2.155074217402e-01 1.938400369844e-01
360000000 2.210148184848e-01 2.001734022945e-01 3.004950643444e-02 -9.415225605036e-02 3.004950643444e-02 -9.415225605036e-02 2.210148184848e-01 2.001734022945e-01
360500000 2.265930046243e-01 2.063442765228e-01 2.886911376607e-02 -9.383750658612e-02 2.886911376607e-02 -9.383750658612e-02 2.265930046243e-01 2.063442765228e-01
361000000 2.322364651980e-01 2.123529639928e-01 2.769601913751e-02 -9.349958311980e-02 2.769601913751e-02 -9.349958311980e-02 2.322364651980e-01 2.123529639928e-01
361500000 2.379398007651e-01 2.181999661022e-01 2.653085623539e-02 -9.313922860184e-02 2.653085623539e-02 -9.313922860184e-02 2.379398007651e-01 2.181999661022e-01
362000000 2.436977336122e-01 2.238859713424e-01 2.537422689044e-02 -9.275718801155e-02 2.537422689044e-02 -9.275718801155e-02 2.436977336122e-01 2.238859713424e-01
362500000 2.495051132405e-01 2.294118452723e-01 2.422670127005e-02 -9.235420671990e-02 2.422670127005e-02 -9.235420671990e-02 2.495051132405e-01 2.294118452723e-01
363000000 2.553569211530e-01 2.347786204939e-01 2.308881815869e-02 -9.193102894130e-02 2.308881815869e-02 -9.193102894130e-02 2.553569211530e-01 2.347786204939e-01
363500000 2.612482749684e-01 2.399874866715e-01 2.196108531924e-02 -9.148839627522e-02 2.196108531924e-02 -9.148839627522e-02 2.612482749684e-01 2.399874866715e-01
364000000 2.671744318862e-01 2.450397806351e-01 2.084397992845e-02 -9.102704633830e-02 2.084397992845e-02 -9.102704633830e-02 2.671744318862e-01 2.450397806351e-01
364500000 2.731307915319e-01 2.499369766043e-01 1.973794907974e-02 -9.054771148645e-02 1.973794907974e-02 -9.054771148645e-02 2.731307915319e-01 2.499369766043e-01
365000000 2.791128982119e-01 2.546806765659e-01 1.864341034684e-02 -9.005111762654e-02 1.864341034684e-02 -9.005111762654e-02 2.791128982119e-01 2.546806765659e-01
365500000 2.851164426073e-01 2.592726008337e-01 1.756075240176e-02 -8.953798311640e-02 1.756075240176e-02 -8.953798311640e-02 2.851164426073e-01 2.592726008337e-01
366000000 2.911372629401e-01 2.637145788180e-01 1.649033568087e-02 -8.900901775179e-02 1.649033568087e-02 -8.900901775179e-02 2.911372629401e-01 2.637145788180e-01
366500000 2.971713456404e-01 2.680085400276e-01 1.543249309309e-02 -8.846492183834e-02 1.543249309309e-02 -8.846492183834e-02 2.971713456404e-01 2.680085400276e-01
367000000 3.032148255495e-01 2.721565053236e-01 1.438753076441e-02 -8.790638534633e-02 1.438753076441e-02 -8.790638534633e-02 3.032148255495e-01 2.721565053236e-01
367500000 3.092639856880e-01 2.761605784435e-01 1.335572881327e-02 -8.733408714596e-02 1.335572881327e-02 -8.733408714596e-02 3.092639856880e-01 2.761605784435e-01
368000000 3.153152566221e-01 2.800229378089e-01 1.233734215155e-02 -8.674869432035e-02 1.233734215155e-02 -8.674869432035e-02 3.153152566221e-01 2.800229378089e-01
368500000 3.213652154584e-01 2.837458286284e-01 1.133260130620e-02 -8.615086155344e-02 1.133260130620e-02 -8.615086155344e-02 3.213652154584e-01 2.837458286284e-01
369000000 3.274105844978e-01 2.873315553062e-01 1.034171325698e-02 -8.554123058982e-02 1.034171325698e-02 -8.554123058982e-02 3.274105844978e-01 2.873315553062e-01
369500000 3.334482295783e-01 2.907824741620e-01 9.364862285798e-03 -8.492042976335e-02 9.364862285798e-03 -8.492042976335e-02 3.334482295783e-01 2.907824741620e-01
370000000 3.394751581356e-01 2.941009864674e-01 8.402210833759e-03 -8.428907359132e-02 8.402210833759e-03 -8.428907359132e-02 3.394751581356e-01 2.941009864674e-01
370500000 3.454885170082e-01 2.972895318030e-01 7.453900362084e-03 -8.364776243091e-02 7.453900362084e-03 -8.364776243091e-02 3.454885170082e-01 2.972895318030e-01
371000000 3.514855900164e-01 3.003505817339e-01 6.520052213451e-03 -8.299708219467e-02 6.520052213451e-03 -8.299708219467e-02 3.514855900164e-01 3.003505817339e-01
371500000 3.574637953369e-01 3.032866338077e-01 5.600768470614e-03 -8.233760412165e-02 5.600768470614e-03 -8.233760412165e-02 3.574637953369e-01 3.032866338077e-01
372000000 3.634206827022e-01 3.061002058681e-01 4.696132809385e-03 -8.166988460086e-02 4.696132809385e-03 -8.166988460086e-02 3.634206827022e-01 3.061002058681e-01
372500000 3.693539304433e-01 3.087938306843e-01 3.806211343373e-03 -8.099446504387e-02 3.806211343373e-03 -8.099446504387e-02 3.693539304433e-01 3.087938306843e-01
373000000 3.752613424013e-01 3.113700508899e-01 2.931053458114e-03 -8.031187180323e-02 2.931053458114e-03 -8.031187180323e-02 3.752613424013e-01 3.113700508899e-01
373500000 3.811408447265e-01 3.138314142255e-01 2.070692632488e-03 -7.962261613363e-02 2.070692632488e-03 -7.962261613363e-02 3.811408447265e-01 3.138314142255e-01
374000000 3.869904825859e-01 3.161804690795e-01 1.225147245551e-03 -7.892719419257e-02 1.225147245551e-03 -7.892719419257e-02 3.869904825859e-01 3.161804690795e-01
374500000 3.928084167958e-01 3.184197603187e-01 3.944213671382e-04 -7.822608707776e-02 3.944213671382e-04 -7.822608707776e-02 3.928084167958e-01 3.184197603187e-01
375000000 3.985929203977e-01 3.205518254013e-01 -4.214944691802e-04 -7.751976089808e-02 -4.214944691802e-04 -7.751976089808e-02 3.985929203977e-01 3.205518254013e-01
375500000 4.043423751929e-01 3.225791907636e-01 -1.222622512031e-03 -7.680866687547e-02 -1.222622512031e-03 -7.680866687547e-02 4.043423751929e-01 3.225791907636e-01
376000000 4.100552682504e-01 3.245043684707e-01 -2.008997058082e-03 -7.609324147504e-02 -2.008997058082e-03 -7.609324147504e-02 4.100552682504e-01 3.245043684707e-01
376500000 4.157301884007e-01 3.263298531233e-01 -2.780663738663e-03 -7.537390656068e-02 -2.780663738663e-03 -7.537390656068e-02 4.157301884007e-01 3.263298531233e-01
377000000 4.213658227294e-01 3.280581190092e-01 -3.537678827862e-03 -7.465106957385e-02 -3.537678827862e-03 -7.465106957385e-02 4.213658227294e-01 3.280581190092e-01
377500000 4.269609530806e-01 3.296916174905e-01 -4.280108572634e-03 -7.392512373316e-02 -4.280108572634e-03 -7.392512373316e-02 4.269609530806e-01 3.296916174905e-01
378000000 4.325144525805e-01 3.312327746173e-01 -5.008028545331e-03 -7.319644825242e-02 -5.008028545331e-03 -7.319644825242e-02 4.325144525805e-01 3.312327746173e-01
378500000 4.380252821911e-01 3.326839889557e-01 -5.721523018929e-03 -7.246540857511e-02 -5.721523018929e-03 -7.246540857511e-02 4.380252821911e-01 3.326839889557e-01
379000000 4.434924873009e-01 3.340476296223e-01 -6.420684365103e-03 -7.173235662338e-02 -6.420684365103e-03 -7.173235662338e-02 4.434924873009e-01 3.340476296223e-01
379500000 4.489151943619e-01 3.353260345137e-01 -7.105612475218e-03 -7.099763105944e-02 -7.105612475218e-03 -7.099763105944e-02 4.489151943619e-01 3.353260345137e-01
380000000 4.542926075778e-01 3.365215087222e-01 -7.776414204166e-03 -7.026155755789e-02 -7.776414204166e-03 -7.026155755789e-02 4.542926075778e-01 3.365215087222e-01
380500000 4.596240056500e-01 3.376363231269e-01 -8.433202836949e-03 -6.952444908704e-02 -8.433202836949e-03 -6.952444908704e-02 4.596240056500e-01 3.376363231269e-01
381000000 4.649087385864e-01 3.386727131511e-01 -9.076097577771e-03 -6.878660619796e-02 -9.076097577771e-03 -6.878660619796e-02 4.649087385864e-01 3.386727131511e-01
381500000 4.701462245770e-01 3.396328776773e-01 -9.705223061380e-03 -6.804831731960e-02 -9.705223061380e-03 -6.804831731960e-02 4.701462245770e-01 3.396328776773e-01
382000000 4.753359469407e-01 3.405189781092e-01 -1.032070888632e-02 -6.730985905880e-02 -1.032070888632e-02 -6.730985905880e-02 4.753359469407e-01 3.405189781092e-01
382500000 4.804774511457e-01 3.413331375732e-01 -1.092268916969e-02 -6.657149650387e-02 -1.092268916969e-02 -6.657149650387e-02 4.804774511457e-01 3.413331375732e-01
383000000 4.855703419059e-01 3.420774402502e-01 -1.151130212300e-02 -6.583348353070e-02 -1.151130212300e-02 -6.583348353070e-02 4.855703419059e-01 3.420774402502e-01
383500000 4.906142803569e-01 3.427539308288e-01 -1.208668964863e-02 -6.509606311023e-02 -1.208668964863e-02 -6.509606311023e-02 4.906142803569e-01 3.427539308288e-01
384000000 4.956089813112e-01 3.433646140729e-01 -1.264899695636e-02 -6.435946761648e-02 -1.264899695636e-02 -6.435946761648e-02 4.956089813112e-01 3.433646140729e-01
384500000 5.005542105950e-01 3.439114544960e-01 -1.319837219952e-02 -6.362391913411e-02 -1.319837219952e-02 -6.362391913411e-02 5.005542105950e-01 3.439114544960e-01
385000000 5.054497824669e-01 3.443963761328e-01 -1.373496613008e-02 -6.288962976485e-02 -1.373496613008e-02 -6.288962976485e-02 5.054497824669e-01 3.443963761328e-01
385500000 5.102955571192e-01 3.448212624044e-01 -1.425893177224e-02 -6.215680193200e-02 -1.425893177224e-02 -6.215680193200e-02 5.102955571192e-01 3.448212624044e-01
386000000 5.150914382613e-01 3.451879560666e-01 -1.477042411379e-02 -6.142562868242e-02 -1.477042411379e-02 -6.142562868242e-02 5.150914382613e-01 3.451879560666e-01
386500000 5.198373707864e-01 3.454982592376e-01 -1.526959981478e-02 -6.069629398530e-02 -1.526959981478e-02 -6.069629398530e-02 5.198373707864e-01 3.454982592376e-01
387000000 5.245333385187e-01 3.457539334977e-01 -1.575661693281e-02 -5.996897302737e-02 -1.575661693281e-02 -5.996897302737e-02 5.245333385187e-01 3.457539334977e-01
387500000 5.291793620428e-01 3.459567000552e-01 -1.623163466432e-02 -5.924383250396e-02 -1.623163466432e-02 -5.924383250396e-02 5.291793620428e-01 3.459567000552e-01
388000000 5.337754966130e-01 3.461082399730e-01 -1.669481310140e-02 -5.852103090553e-02 -1.669481310140e-02 -5.852103090553e-02 5.337754966130e-01 3.461082399730e-01
388500000 5.383218301412e-01 3.462101944506e-01 -1.714631300332e-02 -5.780071879933e-02 -1.714631300332e-02 -5.780071879933e-02 5.383218301412e-01 3.462101944506e-01
389000000 5.428184812641e-01 3.462641651570e-01 -1.758629558238e-02 -5.708303910593e-02 -1.758629558238e-02 -5.708303910593e-02 5.428184812641e-01 3.462641651570e-01
389500000 5.472655974852e-01 3.462717146087e-01 -1.801492230338e-02 -5.636812737017e-02 -1.801492230338e-02 -5.636812737017e-02 5.472655974852e-01 3.462717146087e-01
390000000 5.516633533929e-01 3.462343665896e-01 -1.843235469612e-02 -5.565611202660e-02 -1.843235469612e-02 -5.565611202660e-02 5.516633533929e-01 3.462343665896e-01
390500000 5.560119489519e-01 3.461536066075e-01 -1.883875418040e-02 -5.494711465896e-02 -1.883875418040e-02 -5.494711465896e-02 5.560119489519e-01 3.461536066075e-01
391000000 5.603116078656e-01 3.460308823839e-01 -1.923428190300e-02 -5.424125025366e-02 -1.923428190300e-02 -5.424125025366e-02 5.603116078656e-01 3.460308823839e-01
391500000 5.645625760094e-01 3.458676043737e-01 -1.961909858595e-02 -5.353862744716e-02 -1.961909858595e-02 -5.353862744716e-02 5.645625760094e-01 3.458676043737e-01
392000000 5.687651199310e-01 3.456651463101e-01 -1.999336438576e-02 -5.283934876711e-02 -1.999336438576e-02 -5.283934876711e-02 5.687651199310e-01 3.456651463101e-01
392500000 5.729195254178e-01 3.454248457735e-01 -2.035723876284e-02 -5.214351086720e-02 -2.035723876284e-02 -5.214351086720e-02 5.729195254178e-01 3.454248457735e-01
393000000 5.770260961283e-01 3.451480047787e-01 -2.071088036090e-02 -5.145120475570e-02 -2.071088036090e-02 -5.145120475570e-02 5.770260961283e-01 3.451480047787e-01
393500000 5.810851522856e-01 3.448358903806e-01 -2.105444689554e-02 -5.076251601765e-02 -2.105444689554e-02 -5.076251601765e-02 5.810851522856e-01 3.448358903806e-01
394000000 5.850970294316e-01 3.444897352928e-01 -2.138809505180e-02 -5.007752503069e-02 -2.138809505180e-02 -5.007752503069e-02 5.850970294316e-01 3.444897352928e-01
394500000 5.890620772402e-01 3.441107385196e-01 -2.171198039008e-02 -4.939630717461e-02 -2.171198039008e-02 -4.939630717461e-02 5.890620772402e-01 3.441107385196e-01
395000000 5.929806583856e-01 3.437000659961e-01 -2.202625725998e-02 -4.871893303457e-02 -2.202625725998e-02 -4.871893303457e-02 5.929806583856e-01 3.437000659961e-01
395500000 5.968531474670e-01 3.432588512377e-01 -2.233107872174e-02 -4.804546859811e-02 -2.233107872174e-02 -4.804546859811e-02 5.968531474670e-01 3.432588512377e-01
396000000 6.006799299849e-01 3.427881959934e-01 -2.262659647477e-02 -4.737597544598e-02 -2.262659647477e-02 -4.737597544598e-02 6.006799299849e-01 3.427881959934e-01
396500000 6.044614013684e-01 3.422891709046e-01 -2.291296079289e-02 -4.671051093687e-02 -2.291296079289e-02 -4.671051093687e-02 6.044614013684e-01 3.422891709046e-01
397000000 6.081979660514e-01 3.417628161650e-01 -2.319032046595e-02 -4.604912838615e-02 -2.319032046595e-02 -4.604912838615e-02 6.081979660514e-01 3.417628161650e-01
397500000 6.118900365966e-01 3.412101421819e-01 -2.345882274745e-02 -4.539187723868e-02 -2.345882274745e-02 -4.539187723868e-02 6.118900365966e-01 3.412101421819e-01
398000000 6.155380328638e-01 3.406321302371e-01 -2.371861330773e-02 -4.473880323578e-02 -2.371861330773e-02 -4.473880323578e-02 6.155380328638e-01 3.406321302371e-01
398500000 6.191423812221e-01 3.400297331448e-01 -2.396983619254e-02 -4.408994857651e-02 -2.396983619254e-02 -4.408994857651e-02 6.191423812221e-01 3.400297331448e-01
399000000 6.227035138044e-01 3.394038759082e-01 -2.421263378657e-02 -4.344535207338e-02 -2.421263378657e-02 -4.344535207338e-02 6.227035138044e-01 3.394038759082e-01
399500000 6.262218678013e-01 3.387554563705e-01 -2.444714678165e-02 -4.280504930256e-02 -2.444714678165e-02 -4.280504930256e-02 6.262218678013e-01 3.387554563705e-01
400000000 6.296978847938e-01 3.380853458620e-01 -2.467351414936e-02 -4.216907274873e-02 -2.467351414936e-02 -4.216907274873e-02 6.296978847938e-01 3.380853458620e-01
400500000 6.331320101228e-01 3.373943898405e-01 -2.489187311776e-02 -4.153745194469e-02 -2.489187311776e-02 -4.153745194469e-02 6.331320101228e-01 3.373943898405e-01
401000000 6.365246922940e-01 3.366834085264e-01 -2.510235915194e-02 -4.091021360593e-02 -2.510235915194e-02 -4.091021360593e-02 6.365246922940e-01 3.366834085264e-01
401500000 6.398763824162e-01 3.359531975289e-01 -2.530510593824e-02 -4.028738176015e-02 -2.530510593824e-02 -4.028738176015e-02 6.398763824162e-01 3.359531975289e-01
402000000 6.431875336723e-01 3.352045284658e-01 -2.550024537174e-02 -3.966897787200e-02 -2.550024537174e-02 -3.966897787200e-02 6.431875336723e-01 3.352045284658e-01
402500000 6.464586008211e-01 3.344381495739e-01 -2.568790754700e-02 -3.905502096308e-02 -2.568790754700e-02 -3.905502096308e-02 6.464586008211e-01 3.344381495739e-01
403000000 6.496900397283e-01 3.336547863111e-01 -2.586822075160e-02 -3.844552772734e-02 -2.586822075160e-02 -3.844552772734e-02 6.496900397283e-01 3.336547863111e-01
403500000 6.528823069261e-01 3.328551419493e-01 -2.604131146251e-02 -3.784051264212e-02 -2.604131146251e-02 -3.784051264212e-02 6.528823069261e-01 3.328551419493e-01
404000000 6.560358591992e-01 3.320398981569e-01 -2.620730434494e-02 -3.723998807473e-02 -2.620730434494e-02 -3.723998807473e-02 6.560358591992e-01 3.320398981569e-01
404500000 6.591511531969e-01 3.312097155723e-01 -2.636632225346e-02 -3.664396438503e-02 -2.636632225346e-02 -3.664396438503e-02 6.591511531969e-01 3.312097155723e-01
405000000 6.622286450693e-01 3.303652343665e-01 -2.651848623547e-02 -3.605245002376e-02 -2.651848623547e-02 -3.605245002376e-02 6.622286450693e-01 3.303652343665e-01
405500000 6.652687901266e-01 3.295070747958e-01 -2.666391553645e-02 -3.546545162709e-02 -2.666391553645e-02 -3.546545162709e-02 6.652687901266e-01 3.295070747958e-01
406000000 6.682720425213e-01 3.286358377437e-01 -2.680272760729e-02 -3.488297410727e-02 -2.680272760729e-02 -3.488297410727e-02 6.682720425213e-01 3.286358377437e-01
406500000 6.712388549506e-01 3.277521052519e-01 -2.693503811309e-02 -3.430502073965e-02 -2.693503811309e-02 -3.430502073965e-02 6.712388549506e-01 3.277521052519e-01
407000000 6.741696783794e-01 3.268564410409e-01 -2.706096094374e-02 -3.373159324613e-02 -2.706096094374e-02 -3.373159324613e-02 6.741696783794e-01 3.268564410409e-01
407500000 6.770649617823e-01 3.259493910193e-01 -2.718060822581e-02 -3.316269187513e-02 -2.718060822581e-02 -3.316269187513e-02 6.770649617823e-01 3.259493910193e-01
408000000 6.799251519037e-01 3.250314837828e-01 -2.729409033575e-02 -3.259831547831e-02 -2.729409033575e-02 -3.259831547831e-02 6.799251519037e-01 3.250314837828e-01
408500000 6.827506930348e-01 3.241032311013e-01 -2.740151591438e-02 -3.203846158403e-02 -2.740151591438e-02 -3.203846158403e-02 6.827506930348e-01 3.241032311013e-01
409000000 6.855420268075e-01 3.231651283961e-01 -2.750299188237e-02 -3.148312646771e-02 -2.750299188237e-02 -3.148312646771e-02 6.855420268075e-01 3.231651283961e-01
409500000 6.882995920035e-01 3.222176552055e-01 -2.759862345677e-02 -3.093230521922e-02 -2.759862345677e-02 -3.093230521922e-02 6.882995920035e-01 3.222176552055e-01
410000000 6.910238243779e-01 3.212612756401e-01 -2.768851416838e-02 -3.038599180739e-02 -2.768851416838e-02 -3.038599180739e-02 6.910238243779e-01 3.212612756401e-01
410500000 6.937151564973e-01 3.202964388266e-01 -2.777276587999e-02 -2.984417914174e-02 -2.777276587999e-02 -2.984417914174e-02 6.937151564973e-01 3.202964388266e-01
411000000 6.963740175905e-01 3.193235793419e-01 -2.785147880525e-02 -2.930685913152e-02 -2.785147880525e-02 -2.930685913152e-02 6.963740175905e-01 3.193235793419e-01
411500000 6.990008334123e-01 3.183431176358e-01 -2.792475152828e-02 -2.877402274221e-02 -2.792475152828e-02 -2.877402274221e-02 6.990008334123e-01 3.183431176358e-01
412000000 7.015960261183e-01 3.173554604435e-01 -2.799268102372e-02 -2.824566004948e-02 -2.799268102372e-02 -2.824566004948e-02 7.015960261183e-01 3.173554604435e-01
412500000 7.041600141521e-01 3.163610011882e-01 -2.805536267736e-02 -2.772176029083e-02 -2.805536267736e-02 -2.772176029083e-02 7.041600141521e-01 3.163610011882e-01
413000000 7.066932121420e-01 3.153601203725e-01 -2.811289030721e-02 -2.720231191487e-02 -2.811289030721e-02 -2.720231191487e-02 7.066932121420e-01 3.153601203725e-01
413500000 7.091960308080e-01 3.143531859608e-01 -2.816535618487e-02 -2.668730262845e-02 -2.816535618487e-02 -2.668730262845e-02 7.091960308080e-01 3.143531859608e-01
414000000 7.116688768787e-01 3.133405537511e-01 -2.821285105722e-02 -2.617671944160e-02 -2.821285105722e-02 -2.617671944160e-02 7.116688768787e-01 3.133405537511e-01
414500000 7.141121530167e-01 3.123225677374e-01 -2.825546416846e-02 -2.567054871049e-02 -2.825546416846e-02 -2.567054871049e-02 7.141121530167e-01 3.123225677374e-01
415000000 7.165262577521e-01 3.112995604620e-01 -2.829328328222e-02 -2.516877617839e-02 -2.829328328222e-02 -2.516877617839e-02 7.165262577521e-01 3.112995604620e-01
415500000 7.189115854250e-01 3.102718533595e-01 -2.832639470395e-02 -2.467138701474e-02 -2.832639470395e-02 -2.467138701474e-02 7.189115854250e-01 3.102718533595e-01
416000000 7.212685261341e-01 3.092397570901e-01 -2.835488330337e-02 -2.417836585242e-02 -2.835488330337e-02 -2.417836585242e-02 7.212685261341e-01 3.092397570901e-01
416500000 7.235974656934e-01 3.082035718649e-01 -2.837883253702e-02 -2.368969682333e-02 -2.837883253702e-02 -2.368969682333e-02 7.235974656934e-01 3.082035718649e-01
417000000 7.258987855952e-01 3.071635877617e-01 -2.839832447083e-02 -2.320536359219e-02 -2.839832447083e-02 -2.320536359219e-02 7.258987855952e-01 3.071635877617e-01
417500000 7.281728629790e-01 3.061200850326e-01 -2.841343980275e-02 -2.272534938884e-02 -2.841343980275e-02 -2.272534938884e-02 7.281728629790e-01 3.061200850326e-01
418000000 7.304200706064e-01 3.050733344029e-01 -2.842425788531e-02 -2.224963703893e-02 -2.842425788531e-02 -2.224963703893e-02 7.304200706064e-01 3.050733344029e-01
418500000 7.326407768421e-01 3.040235973608e-01 -2.843085674818e-02 -2.177820899324e-02 -2.843085674818e-02 -2.177820899324e-02 7.326407768421e-01 3.040235973608e-01
419000000 7.348353456390e-01 3.029711264408e-01 -2.843331312057e-02 -2.131104735542e-02 -2.843331312057e-02 -2.131104735542e-02 7.348353456390e-01 3.029711264408e-01
419500000 7.370041365289e-01 3.019161654971e-01 -2.843170245364e-02 -2.084813390855e-02 -2.843170245364e-02 -2.084813390855e-02 7.370041365289e-01 3.019161654971e-01
420000000 7.391475046174e-01 3.008589499704e-01 -2.842609894273e-02 -2.038945014028e-02 -2.842609894273e-02 -2.038945014028e-02 7.391475046174e-01 3.008589499704e-01
420500000 7.412658005832e-01 2.997997071472e-01 -2.841657554939e-02 -1.993497726679e-02 -2.841657554939e-02 -1.993497726679e-02 7.412658005832e-01 2.997997071472e-01
421000000 7.433593706810e-01 2.987386564105e-01 -2.840320402339e-02 -1.948469625550e-02 -2.840320402339e-02 -1.948469625550e-02 7.433593706810e-01 2.987386564105e-01
421500000 7.454285567486e-01 2.976760094845e-01 -2.838605492440e-02 -1.903858784671e-02 -2.838605492440e-02 -1.903858784671e-02 7.454285567486e-01 2.976760094845e-01
422000000 7.474736962170e-01 2.966119706718e-01 -2.836519764358e-02 -1.859663257406e-02 -2.836519764358e-02 -1.859663257406e-02 7.474736962170e-01 2.966119706718e-01
422500000 7.494951221237e-01 2.955467370831e-01 -2.834070042489e-02 -1.815881078404e-02 -2.834070042489e-02 -1.815881078404e-02 7.494951221237e-01 2.955467370831e-01
423000000 7.514931631296e-01 2.944804988615e-01 -2.831263038627e-02 -1.772510265439e-02 -2.831263038627e-02 -1.772510265439e-02 7.514931631296e-01 2.944804988615e-01
423500000 7.534681435378e-01 2.934134393984e-01 -2.828105354046e-02 -1.729548821165e-02 -2.828105354046e-02 -1.729548821165e-02 7.534681435378e-01 2.934134393984e-01
424000000 7.554203833154e-01 2.923457355451e-01 -2.824603481569e-02 -1.686994734769e-02 -2.824603481569e-02 -1.686994734769e-02 7.554203833154e-01 2.923457355451e-01
424500000 7.573501981180e-01 2.912775578163e-01 -2.820763807605e-02 -1.644845983540e-02 -2.820763807605e-02 -1.644845983540e-02 7.573501981180e-01 2.912775578163e-01
425000000 7.592578993154e-01 2.902090705890e-01 -2.816592614165e-02 -1.603100534361e-02 -2.816592614165e-02 -1.603100534361e-02 7.592578993154e-01 2.902090705890e-01
425500000 7.611437940208e-01 2.891404322943e-01 -2.812096080845e-02 -1.561756345107e-02 -2.812096080845e-02 -1.561756345107e-02 7.611437940208e-01 2.891404322943e-01
426000000 7.630081851202e-01 2.880717956046e-01 -2.807280286786e-02 -1.520811365976e-02 -2.807280286786e-02 -1.520811365976e-02 7.630081851202e-01 2.880717956046e-01
426500000 7.648513713050e-01 2.870033076141e-01 -2.802151212607e-02 -1.480263540746e-02 -2.802151212607e-02 -1.480263540746e-02 7.648513713050e-01 2.870033076141e-01
427000000 7.666736471051e-01 2.859351100150e-01 -2.796714742304e-02 -1.440110807954e-02 -2.796714742304e-02 -1.440110807954e-02 7.666736471051e-01 2.859351100150e-01
427500000 7.684753029240e-01 2.848673392674e-01 -2.790976665130e-02 -1.400351102021e-02 -2.790976665130e-02 -1.400351102021e-02 7.684753029240e-01 2.848673392674e-01
428000000 7.702566250752e-01 2.838001267648e-01 -2.784942677431e-02 -1.360982354296e-02 -2.784942677431e-02 -1.360982354296e-02 7.702566250752e-01 2.838001267648e-01
428500000 7.720178958193e-01 2.827335989941e-01 -2.778618384471e-02 -1.322002494058e-02 -2.778618384471e-02 -1.322002494058e-02 7.720178958193e-01 2.827335989941e-01
429000000 7.737593934029e-01 2.816678776913e-01 -2.772009302210e-02 -1.283409449442e-02 -2.772009302210e-02 -1.283409449442e-02 7.737593934029e-01 2.816678776913e-01
429500000 7.754813920978e-01 2.806030799919e-01 -2.765120859066e-02 -1.245201148320e-02 -2.765120859066e-02 -1.245201148320e-02 7.754813920978e-01 2.806030799919e-01
430000000 7.771841622416e-01 2.795393185769e-01 -2.757958397638e-02 -1.207375519127e-02 -2.757958397638e-02 -1.207375519127e-02 7.771841622416e-01 2.795393185769e-01
430500000 7.788679702786e-01 2.784767018149e-01 -2.750527176406e-02 -1.169930491630e-02 -2.750527176406e-02 -1.169930491630e-02 7.788679702786e-01 2.784767018149e-01
431000000 7.805330788016e-01 2.774153338990e-01 -2.742832371393e-02 -1.132863997659e-02 -2.742832371393e-02 -1.132863997659e-02 7.805330788016e-01 2.774153338990e-01
431500000 7.821797465947e-01 2.763553149801e-01 -2.734879077810e-02 -1.096173971781e-02 -2.734879077810e-02 -1.096173971781e-02 7.821797465947e-01 2.763553149801e-01
432000000 7.838082286757e-01 2.752967412960e-01 -2.726672311656e-02 -1.059858351938e-02 -2.726672311656e-02 -1.059858351938e-02 7.838082286757e-01 2.752967412960e-01
432500000 7.854187763395e-01 2.742397052965e-01 -2.718217011300e-02 -1.023915080040e-02 -2.718217011300e-02 -1.023915080040e-02 7.854187763395e-01 2.742397052965e-01
433000000 7.870116372024e-01 2.731842957646e-01 -2.709518039031e-02 -9.883421025145e-03 -2.709518039031e-02 -9.883421025145e-03 7.870116372024e-01 2.731842957646e-01
433500000 7.885870552454e-01 2.721305979341e-01 -2.700580182574e-02 -9.531373708250e-03 -2.700580182574e-02 -9.531373708250e-03 7.885870552454e-01 2.721305979341e-01
434000000 7.901452708590e-01 2.710786936035e-01 -2.691408156585e-02 -9.182988419470e-03 -2.691408156585e-02 -9.182988419470e-03 7.901452708590e-01 2.710786936035e-01
434500000 7.916865208876e-01 2.700286612464e-01 -2.682006604107e-02 -8.838244788119e-03 -2.682006604107e-02 -8.838244788119e-03 7.916865208876e-01 2.700286612464e-01
435000000 7.932110386738e-01 2.689805761188e-01 -2.672380098010e-02 -8.497122507183e-03 -2.672380098010e-02 -8.497122507183e-03 7.932110386738e-01 2.689805761188e-01
435500000 7.947190541034e-01 2.679345103624e-01 -2.662533142391e-02 -8.159601337107e-03 -2.662533142391e-02 -8.159601337107e-03 7.947190541034e-01 2.679345103624e-01
436000000 7.962107936502e-01 2.668905331053e-01 -2.652470173954e-02 -7.825661109292e-03 -2.652470173954e-02 -7.825661109292e-03 7.962107936502e-01 2.668905331053e-01
436500000 7.976864804204e-01 2.658487105596e-01 -2.642195563357e-02 -7.495281729303e-03 -2.642195563357e-02 -7.495281729303e-03 7.976864804204e-01 2.658487105596e-01
437000000 7.991463341977e-01 2.648091061155e-01 -2.631713616536e-02 -7.168443179815e-03 -2.631713616536e-02 -7.168443179815e-03 7.991463341977e-01 2.648091061155e-01
437500000 8.005905714874e-01 2.637717804328e-01 -2.621028576001e-02 -6.845125523289e-03 -2.621028576001e-02 -6.845125523289e-03 8.005905714874e-01 2.637717804328e-01
438000000 8.020194055613e-01 2.627367915300e-01 -2.610144622101e-02 -6.525308904420e-03 -2.610144622101e-02 -6.525308904420e-03 8.020194055613e-01 2.627367915300e-01
438500000 8.034330465018e-01 2.617041948694e-01 -2.599065874267e-02 -6.208973552339e-03 -2.599065874267e-02 -6.208973552339e-03 8.034330465018e-01 2.617041948694e-01
439000000 8.048317012464e-01 2.606740434411e-01 -2.587796392232e-02 -5.896099782608e-03 -2.587796392232e-02 -5.896099782608e-03 8.048317012464e-01 2.606740434411e-01
439500000 8.062155736309e-01 2.596463878431e-01 -2.576340177214e-02 -5.586667998997e-03 -2.576340177214e-02 -5.586667998997e-03 8.062155736309e-01 2.596463878431e-01
440000000 8.075848644339e-01 2.586212763597e-01 -2.564701173087e-02 -5.280658695069e-03 -2.564701173087e-02 -5.280658695069e-03 8.075848644339e-01 2.586212763597e-01
440500000 8.089397714197e-01 2.575987550370e-01 -2.552883267521e-02 -4.978052455571e-03 -2.552883267521e-02 -4.978052455571e-03 8.089397714197e-01 2.575987550370e-01
441000000 8.102804893816e-01 2.565788677566e-01 -2.540890293093e-02 -4.678829957659e-03 -2.540890293093e-02 -4.678829957659e-03 8.102804893816e-01 2.565788677566e-01
441500000 8.116072101848e-01 2.555616563063e-01 -2.528726028382e-02 -4.382971971937e-03 -2.528726028382e-02 -4.382971971937e-03 8.116072101848e-01 2.555616563063e-01
442000000 8.129201228088e-01 2.545471604492e-01 -2.516394199039e-02 -4.090459363356e-03 -2.516394199039e-02 -4.090459363356e-03 8.129201228088e-01 2.545471604492e-01
442500000 8.142194133898e-01 2.535354179901e-01 -2.503898478824e-02 -3.801273091950e-03 -2.503898478824e-02 -3.801273091950e-03 8.142194133898e-01 2.535354179901e-01
443000000 8.155052652622e-01 2.525264648407e-01 -2.491242490636e-02 -3.515394213429e-03 -2.491242490636e-02 -3.515394213429e-03 8.155052652622e-01 2.525264648407e-01
443500000 8.167778590001e-01 2.515203350814e-01 -2.478429807506e-02 -3.232803879646e-03 -2.478429807506e-02 -3.232803879646e-03 8.167778590001e-01 2.515203350814e-01
444000000 8.180373724585e-01 2.505170610228e-01 -2.465463953577e-02 -2.953483338926e-03 -2.465463953577e-02 -2.953483338926e-03 8.180373724585e-01 2.505170610228e-01
444500000 8.192839808141e-01 2.495166732639e-01 -2.452348405055e-02 -2.677413936285e-03 -2.452348405055e-02 -2.677413936285e-03 8.192839808141e-01 2.495166732639e-01
445000000 8.205178566051e-01 2.485192007491e-01 -2.439086591147e-02 -2.404577113531e-03 -2.439086591147e-02 -2.404577113531e-03 8.205178566051e-01 2.485192007491e-01
445500000 8.217391697713e-01 2.475246708236e-01 -2.425681894970e-02 -2.134954409252e-03 -2.425681894970e-02 -2.134954409252e-03 8.217391697713e-01 2.475246708236e-01
446000000 8.229480876937e-01 2.465331092867e-01 -2.412137654444e-02 -1.868527458719e-03 -2.412137654444e-02 -1.868527458719e-03 8.229480876937e-01 2.465331092867e-01
446500000 8.241447752329e-01 2.455445404435e-01 -2.398457163163e-02 -1.605277993678e-03 -2.398457163163e-02 -1.605277993678e-03 8.241447752329e-01 2.455445404435e-01
447000000 8.253293947684e-01 2.445589871551e-01 -2.384643671249e-02 -1.345187842063e-03 -2.384643671249e-02 -1.345187842063e-03 8.253293947684e-01 2.445589871551e-01
447500000 8.265021062361e-01 2.435764708870e-01 -2.370700386178e-02 -1.088238927626e-03 -2.370700386178e-02 -1.088238927626e-03 8.265021062361e-01 2.435764708870e-01
448000000 8.276630671661e-01 2.425970117565e-01 -2.356630473601e-02 -8.344132694797e-04 -2.356630473601e-02 -8.344132694797e-04 8.276630671661e-01 2.425970117565e-01
448500000 8.288124327199e-01 2.416206285781e-01 -2.342437058129e-02 -5.836929815787e-04 -2.342437058129e-02 -5.836929815787e-04 8.288124327199e-01 2.416206285781e-01
449000000 8.299503557273e-01 2.406473389075e-01 -2.328123224119e-02 -3.360602721237e-04 -2.328123224119e-02 -3.360602721237e-04 8.299503557273e-01 2.406473389075e-01
449500000 8.310769867223e-01 2.396771590847e-01 -2.313692016420e-02 -9.149744290508e-05 -2.313692016420e-02 -9.149744290508e-05 8.310769867223e-01 2.396771590847e-01
450000000 8.321924739794e-01 2.387101042751e-01 -2.299146441125e-02 1.500131114137e-04 -2.299146441125e-02 1.500131114137e-04 8.321924739794e-01 2.387101042751e-01
450500000 8.332969635484e-01 2.377461885099e-01 -2.284489466283e-02 3.884889040684e-04 -2.284489466283e-02 3.884889040684e-04 8.332969635484e-01 2.377461885099e-01
451000000 8.343905992896e-01 2.367854247248e-01 -2.269724022611e-02 6.239473570187e-04 -2.269724022611e-02 6.239473570187e-04 8.343905992896e-01 2.367854247248e-01
451500000 8.354735229083e-01 2.358278247977e-01 -2.254853004181e-02 8.564058018195e-04 -2.254853004181e-02 8.564058018195e-04 8.354735229083e-01 2.358278247977e-01
452000000 8.365458739882e-01 2.348733995852e-01 -2.239879269093e-02 1.085881480538e-03 -2.239879269093e-02 1.085881480538e-03 8.365458739882e-01 2.348733995852e-01
452500000 8.376077900258e-01 2.339221589581e-01 -2.224805640131e-02 1.312391546712e-03 -2.224805640131e-02 1.312391546712e-03 8.376077900258e-01 2.339221589581e-01
453000000 8.386594064624e-01 2.329741118352e-01 -2.209634905404e-02 1.535953066343e-03 -2.209634905404e-02 1.535953066343e-03 8.386594064624e-01 2.329741118352e-01
453500000 8.397008567175e-01 2.320292662170e-01 -2.194369818973e-02 1.756583018929e-03 -2.194369818973e-02 1.756583018929e-03 8.397008567175e-01 2.320292662170e-01
454000000 8.407322722203e-01 2.310876292173e-01 -2.179013101461e-02 1.974298298526e-03 -2.179013101461e-02 1.974298298526e-03 8.407322722203e-01 2.310876292173e-01
454500000 8.417537824415e-01 2.301492070946e-01 -2.163567440648e-02 2.189115714837e-03 -2.163567440648e-02 2.189115714837e-03 8.417537824415e-01 2.301492070946e-01
455000000 8.427655149248e-01 2.292140052822e-01 -2.148035492053e-02 2.401051994333e-03 -2.148035492053e-02 2.401051994333e-03 8.427655149248e-01 2.292140052822e-01
455500000 8.437675953171e-01 2.282820284173e-01 -2.132419879503e-02 2.610123781391e-03 -2.132419879503e-02 2.610123781391e-03 8.437675953171e-01 2.282820284173e-01
456000000 8.447601473992e-01 2.273532803693e-01 -2.116723195686e-02 2.816347639457e-03 -2.116723195686e-02 2.816347639457e-03 8.447601473992e-01 2.273532803693e-01
456500000 8.457432931152e-01 2.264277642671e-01 -2.100948002690e-02 3.019740052233e-03 -2.100948002690e-02 3.019740052233e-03 8.457432931152e-01 2.264277642671e-01
457000000 8.467171526023e-01 2.255054825260e-01 -2.085096832533e-02 3.220317424868e-03 -2.085096832533e-02 3.220317424868e-03 8.467171526023e-01 2.255054825260e-01
457500000 8.476818442196e-01 2.245864368726e-01 -2.069172187675e-02 3.418096085177e-03 -2.069172187675e-02 3.418096085177e-03 8.476818442196e-01 2.245864368726e-01
458000000 8.486374845762e-01 2.236706283706e-01 -2.053176541520e-02 3.613092284866e-03 -2.053176541520e-02 3.613092284866e-03 8.486374845762e-01 2.236706283706e-01
458500000 8.495841885599e-01 2.227580574441e-01 -2.037112338906e-02 3.805322200772e-03 -2.037112338906e-02 3.805322200772e-03 8.495841885599e-01 2.227580574441e-01
459000000 8.505220693644e-01 2.218487239014e-01 -2.020981996581e-02 3.994801936107e-03 -2.020981996581e-02 3.994801936107e-03 8.505220693644e-01 2.218487239014e-01
459500000 8.514512385166e-01 2.209426269575e-01 -2.004787903672e-02 4.181547521714e-03 -2.004787903672e-02 4.181547521714e-03 8.514512385166e-01 2.209426269575e-01
460000000 8.523718059034e-01 2.200397652559e-01 -1.988532422133e-02 4.365574917328e-03 -1.988532422133e-02 4.365574917328e-03 8.523718059034e-01 2.200397652559e-01
460500000 8.532838797980e-01 2.191401368898e-01 -1.972217887193e-02 4.546900012843e-03 -1.972217887193e-02 4.546900012843e-03 8.532838797980e-01 2.191401368898e-01
461000000 8.541875668860e-01 2.182437394227e-01 -1.955846607786e-02 4.725538629576e-03 -1.955846607786e-02 4.725538629576e-03 8.541875668860e-01 2.182437394227e-01
461500000 8.550829722908e-01 2.173505699083e-01 -1.939420866970e-02 4.901506521540e-03 -1.939420866970e-02 4.901506521540e-03 8.550829722908e-01 2.173505699083e-01
462000000 8.559701995985e-01 2.164606249095e-01 -1.922942922339e-02 5.074819376717e-03 -1.922942922339e-02 5.074819376717e-03 8.559701995985e-01 2.164606249095e-01
462500000 8.568493508834e-01 2.155739005176e-01 -1.906415006423e-02 5.245492818320e-03 -1.906415006423e-02 5.245492818320e-03 8.568493508834e-01 2.155739005176e-01
463000000 8.577205267314e-01 2.146903923695e-01 -1.889839327079e-02 5.413542406069e-03 -1.889839327079e-02 5.413542406069e-03 8.577205267314e-01 2.146903923695e-01
463500000 8.585838262646e-01 2.138100956660e-01 -1.873218067866e-02 5.578983637450e-03 -1.873218067866e-02 5.578983637450e-03 8.585838262646e-01 2.138100956660e-01
464000000 8.594393471645e-01 2.129330051884e-01 -1.856553388423e-02 5.741831948977e-03 -1.856553388423e-02 5.741831948977e-03 8.594393471645e-01 2.129330051884e-01
464500000 8.602871856955e-01 2.120591153146e-01 -1.839847424823e-02 5.902102717448e-03 -1.839847424823e-02 5.902102717448e-03 8.602871856955e-01 2.120591153146e-01
465000000 8.611274367274e-01 2.111884200357e-01 -1.823102289930e-02 6.059811261194e-03 -1.823102289930e-02 6.059811261194e-03 8.611274367274e-01 2.111884200357e-01
465500000 8.619601937579e-01 2.103209129705e-01 -1.806320073739e-02 6.214972841322e-03 -1.806320073739e-02 6.214972841322e-03 8.619601937579e-01 2.103209129705e-01
466000000 8.627855489349e-01 2.094565873809e-01 -1.789502843710e-02 6.367602662946e-03 -1.789502843710e-02 6.367602662946e-03 8.627855489349e-01 2.094565873809e-01
466500000 8.636035930780e-01 2.085954361865e-01 -1.772652645097e-02 6.517715876419e-03 -1.772652645097e-02 6.517715876419e-03 8.636035930780e-01 2.085954361865e-01
467000000 8.644144156998e-01 2.077374519780e-01 -1.755771501260e-02 6.665327578547e-03 -1.755771501260e-02 6.665327578547e-03 8.644144156998e-01 2.077374519780e-01
467500000 8.652181050271e-01 2.068826270309e-01 -1.738861413977e-02 6.810452813793e-03 -1.738861413977e-02 6.810452813793e-03 8.652181050271e-01 2.068826270309e-01
468000000 8.660147480215e-01 2.060309533189e-01 -1.721924363744e-02 6.953106575481e-03 -1.721924363744e-02 6.953106575481e-03 8.660147480215e-01 2.060309533189e-01
468500000 8.668044303994e-01 2.051824225262e-01 -1.704962310070e-02 7.093303806974e-03 -1.704962310070e-02 7.093303806974e-03 8.668044303994e-01 2.051824225262e-01
469000000 8.675872366526e-01 2.043370260597e-01 -1.687977191761e-02 7.231059402850e-03 -1.687977191761e-02 7.231059402850e-03 8.675872366526e-01 2.043370260597e-01
469500000 8.683632500674e-01 2.034947550612e-01 -1.670970927197e-02 7.366388210066e-03 -1.670970927197e-02 7.366388210066e-03 8.683632500674e-01 2.034947550612e-01
470000000 8.691325527442e-01 2.026556004187e-01 -1.653945414605e-02 7.499305029103e-03 -1.653945414605e-02 7.499305029103e-03 8.691325527442e-01 2.026556004187e-01
470500000 8.698952256163e-01 2.018195527774e-01 -1.636902532320e-02 7.629824615102e-03 -1.636902532320e-02 7.629824615102e-03 8.698952256163e-01 2.018195527774e-01
471000000 8.706513484689e-01 2.009866025508e-01 -1.619844139046e-02 7.757961678987e-03 -1.619844139046e-02 7.757961678987e-03 8.706513484689e-01 2.009866025508e-01
471500000 8.714009999572e-01 2.001567399307e-01 -1.602772074103e-02 7.883730888571e-03 -1.602772074103e-02 7.883730888571e-03 8.714009999572e-01 2.001567399307e-01
472000000 8.721442576244e-01 1.993299548976e-01 -1.585688157670e-02 8.007146869650e-03 -1.585688157670e-02 8.007146869650e-03 8.721442576244e-01 1.993299548976e-01
472500000 8.728811979199e-01 1.985062372302e-01 -1.568594191023e-02 8.128224207080e-03 -1.568594191023e-02 8.128224207080e-03 8.728811979199e-01 1.985062372302e-01
473000000 8.736118962161e-01 1.976855765150e-01 -1.551491956766e-02 8.246977445843e-03 -1.551491956766e-02 8.246977445843e-03 8.736118962161e-01 1.976855765150e-01
473500000 8.743364268265e-01 1.968679621557e-01 -1.534383219055e-02 8.363421092091e-03 -1.534383219055e-02 8.363421092091e-03 8.743364268265e-01 1.968679621557e-01
474000000 8.750548630214e-01 1.960533833813e-01 -1.517269723817e-02 8.477569614178e-03 -1.517269723817e-02 8.477569614178e-03 8.750548630214e-01 1.960533833813e-01
474500000 8.757672770456e-01 1.952418292555e-01 -1.500153198962e-02 8.589437443682e-03 -1.500153198962e-02 8.589437443682e-03 8.757672770456e-01 1.952418292555e-01
475000000 8.764737401341e-01 1.944332886844e-01 -1.483035354589e-02 8.699038976396e-03 -1.483035354589e-02 8.699038976396e-03 8.764737401341e-01 1.944332886844e-01
475500000 8.771743225284e-01 1.936277504247e-01 -1.465917883191e-02 8.806388573317e-03 -1.465917883191e-02 8.806388573317e-03 8.771743225284e-01 1.936277504247e-01
476000000 8.778690934919e-01 1.928252030915e-01 -1.448802459845e-02 8.911500561613e-03 -1.448802459845e-02 8.911500561613e-03 8.778690934919e-01 1.928252030915e-01
476500000 8.785581213261e-01 1.920256351658e-01 -1.431690742410e-02 9.014389235570e-03 -1.431690742410e-02 9.014389235570e-03 8.785581213261e-01 1.920256351658e-01
477000000 8.792414733852e-01 1.912290350016e-01 -1.414584371706e-02 9.115068857526e-03 -1.414584371706e-02 9.115068857526e-03 8.792414733852e-01 1.912290350016e-01
477500000 8.799192160914e-01 1.904353908331e-01 -1.397484971696e-02 9.213553658788e-03 -1.397484971696e-02 9.213553658788e-03 8.799192160914e-01 1.904353908331e-01
478000000 8.805914149496e-01 1.896446907813e-01 -1.380394149665e-02 9.309857840531e-03 -1.380394149665e-02 9.309857840531e-03 8.805914149496e-01 1.896446907813e-01
478500000 8.812581345618e-01 1.888569228608e-01 -1.363313496385e-02 9.403995574676e-03 -1.363313496385e-02 9.403995574676e-03 8.812581345618e-01 1.888569228608e-01
479000000 8.819194386416e-01 1.880720749860e-01 -1.346244586286e-02 9.495981004761e-03 -1.346244586286e-02 9.495981004761e-03 8.819194386416e-01 1.880720749860e-01
479500000 8.825753900279e-01 1.872901349771e-01 -1.329188977614e-02 9.585828246778e-03 -1.329188977614e-02 9.585828246778e-03 8.825753900279e-01 1.872901349771e-01
480000000 8.832260506987e-01 1.865110905664e-01 -1.312148212588e-02 9.673551390012e-03 -1.312148212588e-02 9.673551390012e-03 8.832260506987e-01 1.865110905664e-01
480500000 8.838714817849e-01 1.857349294037e-01 -1.295123817556e-02 9.759164497844e-03 -1.295123817556e-02 9.759164497844e-03 8.838714817849e-01 1.857349294037e-01
481000000 8.845117435834e-01 1.849616390621e-01 -1.278117303138e-02 9.842681608551e-03 -1.278117303138e-02 9.842681608551e-03 8.845117435834e-01 1.849616390621e-01
481500000 8.851468955702e-01 1.841912070430e-01 -1.261130164375e-02 9.924116736078e-03 -1.261130164375e-02 9.924116736078e-03 8.851468955702e-01 1.841912070430e-01
482000000 8.857769964134e-01 1.834236207819e-01 -1.244163880866e-02 1.000348387080e-02 -1.244163880866e-02 1.000348387080e-02 8.857769964134e-01 1.834236207819e-01
482500000 8.864021039854e-01 1.826588676526e-01 -1.227219916904e-02 1.008079698025e-02 -1.227219916904e-02 1.008079698025e-02 8.864021039854e-01 1.826588676526e-01
483000000 8.870222753761e-01 1.818969349729e-01 -1.210299721613e-02 1.015607000987e-02 -1.210299721613e-02 1.015607000987e-02 8.870222753761e-01 1.818969349729e-01
483500000 8.876375669045e-01 1.811378100087e-01 -1.193404729069e-02 1.022931688369e-02 -1.193404729069e-02 1.022931688369e-02 8.876375669045e-01 1.811378100087e-01
484000000 8.882480341307e-01 1.803814799786e-01 -1.176536358432e-02 1.030055150501e-02 -1.176536358432e-02 1.030055150501e-02 8.882480341307e-01 1.803814799786e-01
484500000 8.888537318681e-01 1.796279320584e-01 -1.159696014063e-02 1.036978775711e-02 -1.159696014063e-02 1.036978775711e-02 8.888537318681e-01 1.796279320584e-01
485000000 8.894547141950e-01 1.788771533855e-01 -1.142885085644e-02 1.043703950386e-02 -1.142885085644e-02 1.043703950386e-02 8.894547141950e-01 1.788771533855e-01
485500000 8.900510344656e-01 1.781291310625e-01 -1.126104948291e-02 1.050232059036e-02 -1.126104948291e-02 1.050232059036e-02 8.900510344656e-01 1.781291310625e-01
486000000 8.906427453214e-01 1.773838521615e-01 -1.109356962667e-02 1.056564484360e-02 -1.109356962667e-02 1.056564484360e-02 8.906427453214e-01 1.773838521615e-01
486500000 8.912298987025e-01 1.766413037279e-01 -1.092642475091e-02 1.062702607299e-02 -1.092642475091e-02 1.062702607299e-02 8.912298987025e-01 1.766413037279e-01
487000000 8.918125458582e-01 1.759014727837e-01 -1.075962817638e-02 1.068647807100e-02 -1.075962817638e-02 1.068647807100e-02 8.918125458582e-01 1.759014727837e-01
487500000 8.923907373576e-01 1.751643463317e-01 -1.059319308247e-02 1.074401461371e-02 -1.059319308247e-02 1.074401461371e-02 8.923907373576e-01 1.751643463317e-01
488000000 8.929645231004e-01 1.744299113584e-01 -1.042713250816e-02 1.079964946132e-02 -1.042713250816e-02 1.079964946132e-02 8.929645231004e-01 1.744299113584e-01
488500000 8.935339523269e-01 1.736981548373e-01 -1.026145935301e-02 1.085339635875e-02 -1.026145935301e-02 1.085339635875e-02 8.935339523269e-01 1.736981548373e-01
489000000 8.940990736281e-01 1.729690637324e-01 -1.009618637806e-02 1.090526903608e-02 -1.009618637806e-02 1.090526903608e-02 8.940990736281e-01 1.729690637324e-01
489500000 8.946599349561e-01 1.722426250012e-01 -9.931326206762e-03 1.095528120910e-02 -9.931326206762e-03 1.095528120910e-02 8.946599349561e-01 1.722426250012e-01
490000000 8.952165836334e-01 1.715188255975e-01 -9.766891325863e-03 1.100344657976e-02 -9.766891325863e-03 1.100344657976e-02 8.952165836334e-01 1.715188255975e-01
490500000 8.957690663629e-01 1.707976524744e-01 -9.602894086237e-03 1.104977883665e-02 -9.602894086237e-03 1.104977883665e-02 8.957690663629e-01 1.707976524744e-01
491000000 8.963174292371e-01 1.700790925868e-01 -9.439346703730e-03 1.109429165541e-02 -9.439346703730e-03 1.109429165541e-02 8.963174292371e-01 1.700790925868e-01
491500000 8.968617177476e-01 1.693631328948e-01 -9.276261259960e-03 1.113699869921e-02 -9.276261259960e-03 1.113699869921e-02 8.968617177476e-01 1.693631328948e-01
492000000 8.974019767942e-01 1.686497603651e-01 -9.113649703100e-03 1.117791361913e-02 -9.113649703100e-03 1.117791361913e-02 8.974019767942e-01 1.686497603651e-01
492500000 8.979382506939e-01 1.679389619748e-01 -8.951523848633e-03 1.121705005455e-02 -8.951523848633e-03 1.121705005455e-02 8.979382506939e-01 1.679389619748e-01
493000000 8.984705831898e-01 1.672307247125e-01 -8.789895380091e-03 1.125442163356e-02 -8.789895380091e-03 1.125442163356e-02 8.984705831898e-01 1.672307247125e-01
493500000 8.989990174596e-01 1.665250355817e-01 -8.628775849766e-03 1.129004197327e-02 -8.628775849766e-03 1.129004197327e-02 8.989990174596e-01 1.665250355817e-01
494000000 8.995235961244e-01 1.658218816023e-01 -8.468176679404e-03 1.132392468023e-02 -8.468176679404e-03 1.132392468023e-02 8.995235961244e-01 1.658218816023e-01
494500000 9.000443612572e-01 1.651212498131e-01 -8.308109160880e-03 1.135608335069e-02 -8.308109160880e-03 1.135608335069e-02 9.000443612572e-01 1.651212498131e-01
495000000 9.005613543908e-01 1.644231272734e-01 -8.148584456842e-03 1.138653157095e-02 -8.148584456842e-03 1.138653157095e-02 9.005613543908e-01 1.644231272734e-01
495500000 9.010746165263e-01 1.637275010658e-01 -7.989613601356e-03 1.141528291766e-02 -7.989613601356e-03 1.141528291766e-02 9.010746165263e-01 1.637275010658e-01
496000000 9.015841881410e-01 1.630343582973e-01 -7.831207500508e-03 1.144235095809e-02 -7.831207500508e-03 1.144235095809e-02 9.015841881410e-01 1.630343582973e-01
496500000 9.020901091960e-01 1.623436861013e-01 -7.673376933010e-03 1.146774925041e-02 -7.673376933010e-03 1.146774925041e-02 9.020901091960e-01 1.623436861013e-01
497000000 9.025924191444e-01 1.616554716399e-01 -7.516132550770e-03 1.149149134393e-02 -7.516132550770e-03 1.149149134393e-02 9.025924191444e-01 1.616554716399e-01
497500000 9.030911569386e-01 1.609697021049e-01 -7.359484879460e-03 1.151359077935e-02 -7.359484879460e-03 1.151359077935e-02 9.030911569386e-01 1.609697021049e-01
498000000 9.035863610381e-01 1.602863647197e-01 -7.203444319057e-03 1.153406108898e-02 -7.203444319057e-03 1.153406108898e-02 9.035863610381e-01 1.602863647197e-01
498500000 9.040780694163e-01 1.596054467412e-01 -7.048021144369e-03 1.155291579692e-02 -7.048021144369e-03 1.155291579692e-02 9.040780694163e-01 1.596054467412e-01
499000000 9.045663195682e-01 1.589269354606e-01 -6.893225505554e-03 1.157016841929e-02 -6.893225505554e-03 1.157016841929e-02 9.045663195682e-01 1.589269354606e-01
499500000 9.050511485176e-01 1.582508182054e-01 -6.739067428612e-03 1.158583246440e-02 -6.739067428612e-03 1.158583246440e-02 9.050511485176e-01 1.582508182054e-01
500000000 9.055325928238e-01 1.575770823409e-01 -6.585556815870e-03 1.159992143288e-02 -6.585556815870e-03 1.159992143288e-02 9.055325928238e-01 1.575770823409e-01
